*HEADING
Acrylic Pan graded C3D20R modal model
*NODE
1,0.00000000,0.00000000,-2.50000000
2,25.00000000,0.00000000,-2.50000000
3,25.00000000,5.00000000,-2.50000000
4,0.00000000,5.00000000,-2.50000000
5,0.00000000,0.00000000,0.00000000
6,25.00000000,0.00000000,0.00000000
7,25.00000000,5.00000000,0.00000000
8,0.00000000,5.00000000,0.00000000
9,12.50000000,0.00000000,-2.50000000
10,25.00000000,2.50000000,-2.50000000
11,12.50000000,5.00000000,-2.50000000
12,0.00000000,2.50000000,-2.50000000
13,12.50000000,0.00000000,0.00000000
14,25.00000000,2.50000000,0.00000000
15,12.50000000,5.00000000,0.00000000
16,0.00000000,2.50000000,0.00000000
17,0.00000000,0.00000000,-1.25000000
18,25.00000000,0.00000000,-1.25000000
19,25.00000000,5.00000000,-1.25000000
20,0.00000000,5.00000000,-1.25000000
21,50.00000000,0.00000000,-2.50000000
22,50.00000000,5.00000000,-2.50000000
23,50.00000000,0.00000000,0.00000000
24,50.00000000,5.00000000,0.00000000
25,37.50000000,0.00000000,-2.50000000
26,50.00000000,2.50000000,-2.50000000
27,37.50000000,5.00000000,-2.50000000
28,37.50000000,0.00000000,0.00000000
29,50.00000000,2.50000000,0.00000000
30,37.50000000,5.00000000,0.00000000
31,50.00000000,0.00000000,-1.25000000
32,50.00000000,5.00000000,-1.25000000
33,75.00000000,0.00000000,-2.50000000
34,75.00000000,5.00000000,-2.50000000
35,75.00000000,0.00000000,0.00000000
36,75.00000000,5.00000000,0.00000000
37,62.50000000,0.00000000,-2.50000000
38,75.00000000,2.50000000,-2.50000000
39,62.50000000,5.00000000,-2.50000000
40,62.50000000,0.00000000,0.00000000
41,75.00000000,2.50000000,0.00000000
42,62.50000000,5.00000000,0.00000000
43,75.00000000,0.00000000,-1.25000000
44,75.00000000,5.00000000,-1.25000000
45,100.00000000,0.00000000,-2.50000000
46,100.00000000,5.00000000,-2.50000000
47,100.00000000,0.00000000,0.00000000
48,100.00000000,5.00000000,0.00000000
49,87.50000000,0.00000000,-2.50000000
50,100.00000000,2.50000000,-2.50000000
51,87.50000000,5.00000000,-2.50000000
52,87.50000000,0.00000000,0.00000000
53,100.00000000,2.50000000,0.00000000
54,87.50000000,5.00000000,0.00000000
55,100.00000000,0.00000000,-1.25000000
56,100.00000000,5.00000000,-1.25000000
57,125.00000000,0.00000000,-2.50000000
58,125.00000000,5.00000000,-2.50000000
59,125.00000000,0.00000000,0.00000000
60,125.00000000,5.00000000,0.00000000
61,112.50000000,0.00000000,-2.50000000
62,125.00000000,2.50000000,-2.50000000
63,112.50000000,5.00000000,-2.50000000
64,112.50000000,0.00000000,0.00000000
65,125.00000000,2.50000000,0.00000000
66,112.50000000,5.00000000,0.00000000
67,125.00000000,0.00000000,-1.25000000
68,125.00000000,5.00000000,-1.25000000
69,150.00000000,0.00000000,-2.50000000
70,150.00000000,5.00000000,-2.50000000
71,150.00000000,0.00000000,0.00000000
72,150.00000000,5.00000000,0.00000000
73,137.50000000,0.00000000,-2.50000000
74,150.00000000,2.50000000,-2.50000000
75,137.50000000,5.00000000,-2.50000000
76,137.50000000,0.00000000,0.00000000
77,150.00000000,2.50000000,0.00000000
78,137.50000000,5.00000000,0.00000000
79,150.00000000,0.00000000,-1.25000000
80,150.00000000,5.00000000,-1.25000000
81,175.00000000,0.00000000,-2.50000000
82,175.00000000,5.00000000,-2.50000000
83,175.00000000,0.00000000,0.00000000
84,175.00000000,5.00000000,0.00000000
85,162.50000000,0.00000000,-2.50000000
86,175.00000000,2.50000000,-2.50000000
87,162.50000000,5.00000000,-2.50000000
88,162.50000000,0.00000000,0.00000000
89,175.00000000,2.50000000,0.00000000
90,162.50000000,5.00000000,0.00000000
91,175.00000000,0.00000000,-1.25000000
92,175.00000000,5.00000000,-1.25000000
93,190.00000000,0.00000000,-2.50000000
94,190.00000000,5.00000000,-2.50000000
95,190.00000000,0.00000000,0.00000000
96,190.00000000,5.00000000,0.00000000
97,182.50000000,0.00000000,-2.50000000
98,190.00000000,2.50000000,-2.50000000
99,182.50000000,5.00000000,-2.50000000
100,182.50000000,0.00000000,0.00000000
101,190.00000000,2.50000000,0.00000000
102,182.50000000,5.00000000,0.00000000
103,190.00000000,0.00000000,-1.25000000
104,190.00000000,5.00000000,-1.25000000
105,200.00000000,0.00000000,-2.50000000
106,200.00000000,5.00000000,-2.50000000
107,200.00000000,0.00000000,0.00000000
108,200.00000000,5.00000000,0.00000000
109,195.00000000,0.00000000,-2.50000000
110,200.00000000,2.50000000,-2.50000000
111,195.00000000,5.00000000,-2.50000000
112,195.00000000,0.00000000,0.00000000
113,200.00000000,2.50000000,0.00000000
114,195.00000000,5.00000000,0.00000000
115,200.00000000,0.00000000,-1.25000000
116,200.00000000,5.00000000,-1.25000000
117,210.00000000,0.00000000,-2.50000000
118,210.00000000,5.00000000,-2.50000000
119,210.00000000,0.00000000,0.00000000
120,210.00000000,5.00000000,0.00000000
121,205.00000000,0.00000000,-2.50000000
122,210.00000000,2.50000000,-2.50000000
123,205.00000000,5.00000000,-2.50000000
124,205.00000000,0.00000000,0.00000000
125,210.00000000,2.50000000,0.00000000
126,205.00000000,5.00000000,0.00000000
127,210.00000000,0.00000000,-1.25000000
128,210.00000000,5.00000000,-1.25000000
129,225.00000000,0.00000000,-2.50000000
130,225.00000000,5.00000000,-2.50000000
131,225.00000000,0.00000000,0.00000000
132,225.00000000,5.00000000,0.00000000
133,217.50000000,0.00000000,-2.50000000
134,225.00000000,2.50000000,-2.50000000
135,217.50000000,5.00000000,-2.50000000
136,217.50000000,0.00000000,0.00000000
137,225.00000000,2.50000000,0.00000000
138,217.50000000,5.00000000,0.00000000
139,225.00000000,0.00000000,-1.25000000
140,225.00000000,5.00000000,-1.25000000
141,250.00000000,0.00000000,-2.50000000
142,250.00000000,5.00000000,-2.50000000
143,250.00000000,0.00000000,0.00000000
144,250.00000000,5.00000000,0.00000000
145,237.50000000,0.00000000,-2.50000000
146,250.00000000,2.50000000,-2.50000000
147,237.50000000,5.00000000,-2.50000000
148,237.50000000,0.00000000,0.00000000
149,250.00000000,2.50000000,0.00000000
150,237.50000000,5.00000000,0.00000000
151,250.00000000,0.00000000,-1.25000000
152,250.00000000,5.00000000,-1.25000000
153,275.00000000,0.00000000,-2.50000000
154,275.00000000,5.00000000,-2.50000000
155,275.00000000,0.00000000,0.00000000
156,275.00000000,5.00000000,0.00000000
157,262.50000000,0.00000000,-2.50000000
158,275.00000000,2.50000000,-2.50000000
159,262.50000000,5.00000000,-2.50000000
160,262.50000000,0.00000000,0.00000000
161,275.00000000,2.50000000,0.00000000
162,262.50000000,5.00000000,0.00000000
163,275.00000000,0.00000000,-1.25000000
164,275.00000000,5.00000000,-1.25000000
165,290.00000000,0.00000000,-2.50000000
166,290.00000000,5.00000000,-2.50000000
167,290.00000000,0.00000000,0.00000000
168,290.00000000,5.00000000,0.00000000
169,282.50000000,0.00000000,-2.50000000
170,290.00000000,2.50000000,-2.50000000
171,282.50000000,5.00000000,-2.50000000
172,282.50000000,0.00000000,0.00000000
173,290.00000000,2.50000000,0.00000000
174,282.50000000,5.00000000,0.00000000
175,290.00000000,0.00000000,-1.25000000
176,290.00000000,5.00000000,-1.25000000
177,300.00000000,0.00000000,-2.50000000
178,300.00000000,5.00000000,-2.50000000
179,300.00000000,0.00000000,0.00000000
180,300.00000000,5.00000000,0.00000000
181,295.00000000,0.00000000,-2.50000000
182,300.00000000,2.50000000,-2.50000000
183,295.00000000,5.00000000,-2.50000000
184,295.00000000,0.00000000,0.00000000
185,300.00000000,2.50000000,0.00000000
186,295.00000000,5.00000000,0.00000000
187,300.00000000,0.00000000,-1.25000000
188,300.00000000,5.00000000,-1.25000000
189,310.00000000,0.00000000,-2.50000000
190,310.00000000,5.00000000,-2.50000000
191,310.00000000,0.00000000,0.00000000
192,310.00000000,5.00000000,0.00000000
193,305.00000000,0.00000000,-2.50000000
194,310.00000000,2.50000000,-2.50000000
195,305.00000000,5.00000000,-2.50000000
196,305.00000000,0.00000000,0.00000000
197,310.00000000,2.50000000,0.00000000
198,305.00000000,5.00000000,0.00000000
199,310.00000000,0.00000000,-1.25000000
200,310.00000000,5.00000000,-1.25000000
201,325.00000000,0.00000000,-2.50000000
202,325.00000000,5.00000000,-2.50000000
203,325.00000000,0.00000000,0.00000000
204,325.00000000,5.00000000,0.00000000
205,317.50000000,0.00000000,-2.50000000
206,325.00000000,2.50000000,-2.50000000
207,317.50000000,5.00000000,-2.50000000
208,317.50000000,0.00000000,0.00000000
209,325.00000000,2.50000000,0.00000000
210,317.50000000,5.00000000,0.00000000
211,325.00000000,0.00000000,-1.25000000
212,325.00000000,5.00000000,-1.25000000
213,350.00000000,0.00000000,-2.50000000
214,350.00000000,5.00000000,-2.50000000
215,350.00000000,0.00000000,0.00000000
216,350.00000000,5.00000000,0.00000000
217,337.50000000,0.00000000,-2.50000000
218,350.00000000,2.50000000,-2.50000000
219,337.50000000,5.00000000,-2.50000000
220,337.50000000,0.00000000,0.00000000
221,350.00000000,2.50000000,0.00000000
222,337.50000000,5.00000000,0.00000000
223,350.00000000,0.00000000,-1.25000000
224,350.00000000,5.00000000,-1.25000000
225,375.00000000,0.00000000,-2.50000000
226,375.00000000,5.00000000,-2.50000000
227,375.00000000,0.00000000,0.00000000
228,375.00000000,5.00000000,0.00000000
229,362.50000000,0.00000000,-2.50000000
230,375.00000000,2.50000000,-2.50000000
231,362.50000000,5.00000000,-2.50000000
232,362.50000000,0.00000000,0.00000000
233,375.00000000,2.50000000,0.00000000
234,362.50000000,5.00000000,0.00000000
235,375.00000000,0.00000000,-1.25000000
236,375.00000000,5.00000000,-1.25000000
237,400.00000000,0.00000000,-2.50000000
238,400.00000000,5.00000000,-2.50000000
239,400.00000000,0.00000000,0.00000000
240,400.00000000,5.00000000,0.00000000
241,387.50000000,0.00000000,-2.50000000
242,400.00000000,2.50000000,-2.50000000
243,387.50000000,5.00000000,-2.50000000
244,387.50000000,0.00000000,0.00000000
245,400.00000000,2.50000000,0.00000000
246,387.50000000,5.00000000,0.00000000
247,400.00000000,0.00000000,-1.25000000
248,400.00000000,5.00000000,-1.25000000
249,25.00000000,10.00000000,-2.50000000
250,0.00000000,10.00000000,-2.50000000
251,25.00000000,10.00000000,0.00000000
252,0.00000000,10.00000000,0.00000000
253,25.00000000,7.50000000,-2.50000000
254,12.50000000,10.00000000,-2.50000000
255,0.00000000,7.50000000,-2.50000000
256,25.00000000,7.50000000,0.00000000
257,12.50000000,10.00000000,0.00000000
258,0.00000000,7.50000000,0.00000000
259,25.00000000,10.00000000,-1.25000000
260,0.00000000,10.00000000,-1.25000000
261,50.00000000,10.00000000,-2.50000000
262,50.00000000,10.00000000,0.00000000
263,50.00000000,7.50000000,-2.50000000
264,37.50000000,10.00000000,-2.50000000
265,50.00000000,7.50000000,0.00000000
266,37.50000000,10.00000000,0.00000000
267,50.00000000,10.00000000,-1.25000000
268,75.00000000,10.00000000,-2.50000000
269,75.00000000,10.00000000,0.00000000
270,75.00000000,7.50000000,-2.50000000
271,62.50000000,10.00000000,-2.50000000
272,75.00000000,7.50000000,0.00000000
273,62.50000000,10.00000000,0.00000000
274,75.00000000,10.00000000,-1.25000000
275,100.00000000,10.00000000,-2.50000000
276,100.00000000,10.00000000,0.00000000
277,100.00000000,7.50000000,-2.50000000
278,87.50000000,10.00000000,-2.50000000
279,100.00000000,7.50000000,0.00000000
280,87.50000000,10.00000000,0.00000000
281,100.00000000,10.00000000,-1.25000000
282,125.00000000,10.00000000,-2.50000000
283,125.00000000,10.00000000,0.00000000
284,125.00000000,7.50000000,-2.50000000
285,112.50000000,10.00000000,-2.50000000
286,125.00000000,7.50000000,0.00000000
287,112.50000000,10.00000000,0.00000000
288,125.00000000,10.00000000,-1.25000000
289,150.00000000,10.00000000,-2.50000000
290,150.00000000,10.00000000,0.00000000
291,150.00000000,7.50000000,-2.50000000
292,137.50000000,10.00000000,-2.50000000
293,150.00000000,7.50000000,0.00000000
294,137.50000000,10.00000000,0.00000000
295,150.00000000,10.00000000,-1.25000000
296,175.00000000,10.00000000,-2.50000000
297,175.00000000,10.00000000,0.00000000
298,175.00000000,7.50000000,-2.50000000
299,162.50000000,10.00000000,-2.50000000
300,175.00000000,7.50000000,0.00000000
301,162.50000000,10.00000000,0.00000000
302,175.00000000,10.00000000,-1.25000000
303,190.00000000,10.00000000,-2.50000000
304,190.00000000,10.00000000,0.00000000
305,190.00000000,7.50000000,-2.50000000
306,182.50000000,10.00000000,-2.50000000
307,190.00000000,7.50000000,0.00000000
308,182.50000000,10.00000000,0.00000000
309,190.00000000,10.00000000,-1.25000000
310,200.00000000,10.00000000,-2.50000000
311,200.00000000,10.00000000,0.00000000
312,200.00000000,7.50000000,-2.50000000
313,195.00000000,10.00000000,-2.50000000
314,200.00000000,7.50000000,0.00000000
315,195.00000000,10.00000000,0.00000000
316,200.00000000,10.00000000,-1.25000000
317,210.00000000,10.00000000,-2.50000000
318,210.00000000,10.00000000,0.00000000
319,210.00000000,7.50000000,-2.50000000
320,205.00000000,10.00000000,-2.50000000
321,210.00000000,7.50000000,0.00000000
322,205.00000000,10.00000000,0.00000000
323,210.00000000,10.00000000,-1.25000000
324,225.00000000,10.00000000,-2.50000000
325,225.00000000,10.00000000,0.00000000
326,225.00000000,7.50000000,-2.50000000
327,217.50000000,10.00000000,-2.50000000
328,225.00000000,7.50000000,0.00000000
329,217.50000000,10.00000000,0.00000000
330,225.00000000,10.00000000,-1.25000000
331,250.00000000,10.00000000,-2.50000000
332,250.00000000,10.00000000,0.00000000
333,250.00000000,7.50000000,-2.50000000
334,237.50000000,10.00000000,-2.50000000
335,250.00000000,7.50000000,0.00000000
336,237.50000000,10.00000000,0.00000000
337,250.00000000,10.00000000,-1.25000000
338,275.00000000,10.00000000,-2.50000000
339,275.00000000,10.00000000,0.00000000
340,275.00000000,7.50000000,-2.50000000
341,262.50000000,10.00000000,-2.50000000
342,275.00000000,7.50000000,0.00000000
343,262.50000000,10.00000000,0.00000000
344,275.00000000,10.00000000,-1.25000000
345,290.00000000,10.00000000,-2.50000000
346,290.00000000,10.00000000,0.00000000
347,290.00000000,7.50000000,-2.50000000
348,282.50000000,10.00000000,-2.50000000
349,290.00000000,7.50000000,0.00000000
350,282.50000000,10.00000000,0.00000000
351,290.00000000,10.00000000,-1.25000000
352,300.00000000,10.00000000,-2.50000000
353,300.00000000,10.00000000,0.00000000
354,300.00000000,7.50000000,-2.50000000
355,295.00000000,10.00000000,-2.50000000
356,300.00000000,7.50000000,0.00000000
357,295.00000000,10.00000000,0.00000000
358,300.00000000,10.00000000,-1.25000000
359,310.00000000,10.00000000,-2.50000000
360,310.00000000,10.00000000,0.00000000
361,310.00000000,7.50000000,-2.50000000
362,305.00000000,10.00000000,-2.50000000
363,310.00000000,7.50000000,0.00000000
364,305.00000000,10.00000000,0.00000000
365,310.00000000,10.00000000,-1.25000000
366,325.00000000,10.00000000,-2.50000000
367,325.00000000,10.00000000,0.00000000
368,325.00000000,7.50000000,-2.50000000
369,317.50000000,10.00000000,-2.50000000
370,325.00000000,7.50000000,0.00000000
371,317.50000000,10.00000000,0.00000000
372,325.00000000,10.00000000,-1.25000000
373,350.00000000,10.00000000,-2.50000000
374,350.00000000,10.00000000,0.00000000
375,350.00000000,7.50000000,-2.50000000
376,337.50000000,10.00000000,-2.50000000
377,350.00000000,7.50000000,0.00000000
378,337.50000000,10.00000000,0.00000000
379,350.00000000,10.00000000,-1.25000000
380,375.00000000,10.00000000,-2.50000000
381,375.00000000,10.00000000,0.00000000
382,375.00000000,7.50000000,-2.50000000
383,362.50000000,10.00000000,-2.50000000
384,375.00000000,7.50000000,0.00000000
385,362.50000000,10.00000000,0.00000000
386,375.00000000,10.00000000,-1.25000000
387,400.00000000,10.00000000,-2.50000000
388,400.00000000,10.00000000,0.00000000
389,400.00000000,7.50000000,-2.50000000
390,387.50000000,10.00000000,-2.50000000
391,400.00000000,7.50000000,0.00000000
392,387.50000000,10.00000000,0.00000000
393,400.00000000,10.00000000,-1.25000000
394,25.00000000,15.00000000,-2.50000000
395,0.00000000,15.00000000,-2.50000000
396,25.00000000,15.00000000,0.00000000
397,0.00000000,15.00000000,0.00000000
398,25.00000000,12.50000000,-2.50000000
399,12.50000000,15.00000000,-2.50000000
400,0.00000000,12.50000000,-2.50000000
401,25.00000000,12.50000000,0.00000000
402,12.50000000,15.00000000,0.00000000
403,0.00000000,12.50000000,0.00000000
404,25.00000000,15.00000000,-1.25000000
405,0.00000000,15.00000000,-1.25000000
406,50.00000000,15.00000000,-2.50000000
407,50.00000000,15.00000000,0.00000000
408,50.00000000,12.50000000,-2.50000000
409,37.50000000,15.00000000,-2.50000000
410,50.00000000,12.50000000,0.00000000
411,37.50000000,15.00000000,0.00000000
412,50.00000000,15.00000000,-1.25000000
413,75.00000000,15.00000000,-2.50000000
414,75.00000000,15.00000000,0.00000000
415,75.00000000,12.50000000,-2.50000000
416,62.50000000,15.00000000,-2.50000000
417,75.00000000,12.50000000,0.00000000
418,62.50000000,15.00000000,0.00000000
419,75.00000000,15.00000000,-1.25000000
420,100.00000000,15.00000000,-2.50000000
421,100.00000000,15.00000000,0.00000000
422,100.00000000,12.50000000,-2.50000000
423,87.50000000,15.00000000,-2.50000000
424,100.00000000,12.50000000,0.00000000
425,87.50000000,15.00000000,0.00000000
426,100.00000000,15.00000000,-1.25000000
427,125.00000000,15.00000000,-2.50000000
428,125.00000000,15.00000000,0.00000000
429,125.00000000,12.50000000,-2.50000000
430,112.50000000,15.00000000,-2.50000000
431,125.00000000,12.50000000,0.00000000
432,112.50000000,15.00000000,0.00000000
433,125.00000000,15.00000000,-1.25000000
434,150.00000000,15.00000000,-2.50000000
435,150.00000000,15.00000000,0.00000000
436,150.00000000,12.50000000,-2.50000000
437,137.50000000,15.00000000,-2.50000000
438,150.00000000,12.50000000,0.00000000
439,137.50000000,15.00000000,0.00000000
440,150.00000000,15.00000000,-1.25000000
441,175.00000000,15.00000000,-2.50000000
442,175.00000000,15.00000000,0.00000000
443,175.00000000,12.50000000,-2.50000000
444,162.50000000,15.00000000,-2.50000000
445,175.00000000,12.50000000,0.00000000
446,162.50000000,15.00000000,0.00000000
447,175.00000000,15.00000000,-1.25000000
448,190.00000000,15.00000000,-2.50000000
449,190.00000000,15.00000000,0.00000000
450,190.00000000,12.50000000,-2.50000000
451,182.50000000,15.00000000,-2.50000000
452,190.00000000,12.50000000,0.00000000
453,182.50000000,15.00000000,0.00000000
454,190.00000000,15.00000000,-1.25000000
455,200.00000000,15.00000000,-2.50000000
456,200.00000000,15.00000000,0.00000000
457,200.00000000,12.50000000,-2.50000000
458,195.00000000,15.00000000,-2.50000000
459,200.00000000,12.50000000,0.00000000
460,195.00000000,15.00000000,0.00000000
461,200.00000000,15.00000000,-1.25000000
462,210.00000000,15.00000000,-2.50000000
463,210.00000000,15.00000000,0.00000000
464,210.00000000,12.50000000,-2.50000000
465,205.00000000,15.00000000,-2.50000000
466,210.00000000,12.50000000,0.00000000
467,205.00000000,15.00000000,0.00000000
468,210.00000000,15.00000000,-1.25000000
469,225.00000000,15.00000000,-2.50000000
470,225.00000000,15.00000000,0.00000000
471,225.00000000,12.50000000,-2.50000000
472,217.50000000,15.00000000,-2.50000000
473,225.00000000,12.50000000,0.00000000
474,217.50000000,15.00000000,0.00000000
475,225.00000000,15.00000000,-1.25000000
476,250.00000000,15.00000000,-2.50000000
477,250.00000000,15.00000000,0.00000000
478,250.00000000,12.50000000,-2.50000000
479,237.50000000,15.00000000,-2.50000000
480,250.00000000,12.50000000,0.00000000
481,237.50000000,15.00000000,0.00000000
482,250.00000000,15.00000000,-1.25000000
483,275.00000000,15.00000000,-2.50000000
484,275.00000000,15.00000000,0.00000000
485,275.00000000,12.50000000,-2.50000000
486,262.50000000,15.00000000,-2.50000000
487,275.00000000,12.50000000,0.00000000
488,262.50000000,15.00000000,0.00000000
489,275.00000000,15.00000000,-1.25000000
490,290.00000000,15.00000000,-2.50000000
491,290.00000000,15.00000000,0.00000000
492,290.00000000,12.50000000,-2.50000000
493,282.50000000,15.00000000,-2.50000000
494,290.00000000,12.50000000,0.00000000
495,282.50000000,15.00000000,0.00000000
496,290.00000000,15.00000000,-1.25000000
497,300.00000000,15.00000000,-2.50000000
498,300.00000000,15.00000000,0.00000000
499,300.00000000,12.50000000,-2.50000000
500,295.00000000,15.00000000,-2.50000000
501,300.00000000,12.50000000,0.00000000
502,295.00000000,15.00000000,0.00000000
503,300.00000000,15.00000000,-1.25000000
504,310.00000000,15.00000000,-2.50000000
505,310.00000000,15.00000000,0.00000000
506,310.00000000,12.50000000,-2.50000000
507,305.00000000,15.00000000,-2.50000000
508,310.00000000,12.50000000,0.00000000
509,305.00000000,15.00000000,0.00000000
510,310.00000000,15.00000000,-1.25000000
511,325.00000000,15.00000000,-2.50000000
512,325.00000000,15.00000000,0.00000000
513,325.00000000,12.50000000,-2.50000000
514,317.50000000,15.00000000,-2.50000000
515,325.00000000,12.50000000,0.00000000
516,317.50000000,15.00000000,0.00000000
517,325.00000000,15.00000000,-1.25000000
518,350.00000000,15.00000000,-2.50000000
519,350.00000000,15.00000000,0.00000000
520,350.00000000,12.50000000,-2.50000000
521,337.50000000,15.00000000,-2.50000000
522,350.00000000,12.50000000,0.00000000
523,337.50000000,15.00000000,0.00000000
524,350.00000000,15.00000000,-1.25000000
525,375.00000000,15.00000000,-2.50000000
526,375.00000000,15.00000000,0.00000000
527,375.00000000,12.50000000,-2.50000000
528,362.50000000,15.00000000,-2.50000000
529,375.00000000,12.50000000,0.00000000
530,362.50000000,15.00000000,0.00000000
531,375.00000000,15.00000000,-1.25000000
532,400.00000000,15.00000000,-2.50000000
533,400.00000000,15.00000000,0.00000000
534,400.00000000,12.50000000,-2.50000000
535,387.50000000,15.00000000,-2.50000000
536,400.00000000,12.50000000,0.00000000
537,387.50000000,15.00000000,0.00000000
538,400.00000000,15.00000000,-1.25000000
539,25.00000000,20.00000000,-2.50000000
540,0.00000000,20.00000000,-2.50000000
541,25.00000000,20.00000000,0.00000000
542,0.00000000,20.00000000,0.00000000
543,25.00000000,17.50000000,-2.50000000
544,12.50000000,20.00000000,-2.50000000
545,0.00000000,17.50000000,-2.50000000
546,25.00000000,17.50000000,0.00000000
547,12.50000000,20.00000000,0.00000000
548,0.00000000,17.50000000,0.00000000
549,25.00000000,20.00000000,-1.25000000
550,0.00000000,20.00000000,-1.25000000
551,50.00000000,20.00000000,-2.50000000
552,50.00000000,20.00000000,0.00000000
553,50.00000000,17.50000000,-2.50000000
554,37.50000000,20.00000000,-2.50000000
555,50.00000000,17.50000000,0.00000000
556,37.50000000,20.00000000,0.00000000
557,50.00000000,20.00000000,-1.25000000
558,75.00000000,20.00000000,-2.50000000
559,75.00000000,20.00000000,0.00000000
560,75.00000000,17.50000000,-2.50000000
561,62.50000000,20.00000000,-2.50000000
562,75.00000000,17.50000000,0.00000000
563,62.50000000,20.00000000,0.00000000
564,75.00000000,20.00000000,-1.25000000
565,100.00000000,20.00000000,-2.50000000
566,100.00000000,20.00000000,0.00000000
567,100.00000000,17.50000000,-2.50000000
568,87.50000000,20.00000000,-2.50000000
569,100.00000000,17.50000000,0.00000000
570,87.50000000,20.00000000,0.00000000
571,100.00000000,20.00000000,-1.25000000
572,125.00000000,20.00000000,-2.50000000
573,125.00000000,20.00000000,0.00000000
574,125.00000000,17.50000000,-2.50000000
575,112.50000000,20.00000000,-2.50000000
576,125.00000000,17.50000000,0.00000000
577,112.50000000,20.00000000,0.00000000
578,125.00000000,20.00000000,-1.25000000
579,150.00000000,20.00000000,-2.50000000
580,150.00000000,20.00000000,0.00000000
581,150.00000000,17.50000000,-2.50000000
582,137.50000000,20.00000000,-2.50000000
583,150.00000000,17.50000000,0.00000000
584,137.50000000,20.00000000,0.00000000
585,150.00000000,20.00000000,-1.25000000
586,175.00000000,20.00000000,-2.50000000
587,175.00000000,20.00000000,0.00000000
588,175.00000000,17.50000000,-2.50000000
589,162.50000000,20.00000000,-2.50000000
590,175.00000000,17.50000000,0.00000000
591,162.50000000,20.00000000,0.00000000
592,175.00000000,20.00000000,-1.25000000
593,190.00000000,20.00000000,-2.50000000
594,190.00000000,20.00000000,0.00000000
595,190.00000000,17.50000000,-2.50000000
596,182.50000000,20.00000000,-2.50000000
597,190.00000000,17.50000000,0.00000000
598,182.50000000,20.00000000,0.00000000
599,190.00000000,20.00000000,-1.25000000
600,200.00000000,20.00000000,-2.50000000
601,200.00000000,20.00000000,0.00000000
602,200.00000000,17.50000000,-2.50000000
603,195.00000000,20.00000000,-2.50000000
604,200.00000000,17.50000000,0.00000000
605,195.00000000,20.00000000,0.00000000
606,200.00000000,20.00000000,-1.25000000
607,210.00000000,20.00000000,-2.50000000
608,210.00000000,20.00000000,0.00000000
609,210.00000000,17.50000000,-2.50000000
610,205.00000000,20.00000000,-2.50000000
611,210.00000000,17.50000000,0.00000000
612,205.00000000,20.00000000,0.00000000
613,210.00000000,20.00000000,-1.25000000
614,225.00000000,20.00000000,-2.50000000
615,225.00000000,20.00000000,0.00000000
616,225.00000000,17.50000000,-2.50000000
617,217.50000000,20.00000000,-2.50000000
618,225.00000000,17.50000000,0.00000000
619,217.50000000,20.00000000,0.00000000
620,225.00000000,20.00000000,-1.25000000
621,250.00000000,20.00000000,-2.50000000
622,250.00000000,20.00000000,0.00000000
623,250.00000000,17.50000000,-2.50000000
624,237.50000000,20.00000000,-2.50000000
625,250.00000000,17.50000000,0.00000000
626,237.50000000,20.00000000,0.00000000
627,250.00000000,20.00000000,-1.25000000
628,275.00000000,20.00000000,-2.50000000
629,275.00000000,20.00000000,0.00000000
630,275.00000000,17.50000000,-2.50000000
631,262.50000000,20.00000000,-2.50000000
632,275.00000000,17.50000000,0.00000000
633,262.50000000,20.00000000,0.00000000
634,275.00000000,20.00000000,-1.25000000
635,290.00000000,20.00000000,-2.50000000
636,290.00000000,20.00000000,0.00000000
637,290.00000000,17.50000000,-2.50000000
638,282.50000000,20.00000000,-2.50000000
639,290.00000000,17.50000000,0.00000000
640,282.50000000,20.00000000,0.00000000
641,290.00000000,20.00000000,-1.25000000
642,300.00000000,20.00000000,-2.50000000
643,300.00000000,20.00000000,0.00000000
644,300.00000000,17.50000000,-2.50000000
645,295.00000000,20.00000000,-2.50000000
646,300.00000000,17.50000000,0.00000000
647,295.00000000,20.00000000,0.00000000
648,300.00000000,20.00000000,-1.25000000
649,310.00000000,20.00000000,-2.50000000
650,310.00000000,20.00000000,0.00000000
651,310.00000000,17.50000000,-2.50000000
652,305.00000000,20.00000000,-2.50000000
653,310.00000000,17.50000000,0.00000000
654,305.00000000,20.00000000,0.00000000
655,310.00000000,20.00000000,-1.25000000
656,325.00000000,20.00000000,-2.50000000
657,325.00000000,20.00000000,0.00000000
658,325.00000000,17.50000000,-2.50000000
659,317.50000000,20.00000000,-2.50000000
660,325.00000000,17.50000000,0.00000000
661,317.50000000,20.00000000,0.00000000
662,325.00000000,20.00000000,-1.25000000
663,350.00000000,20.00000000,-2.50000000
664,350.00000000,20.00000000,0.00000000
665,350.00000000,17.50000000,-2.50000000
666,337.50000000,20.00000000,-2.50000000
667,350.00000000,17.50000000,0.00000000
668,337.50000000,20.00000000,0.00000000
669,350.00000000,20.00000000,-1.25000000
670,375.00000000,20.00000000,-2.50000000
671,375.00000000,20.00000000,0.00000000
672,375.00000000,17.50000000,-2.50000000
673,362.50000000,20.00000000,-2.50000000
674,375.00000000,17.50000000,0.00000000
675,362.50000000,20.00000000,0.00000000
676,375.00000000,20.00000000,-1.25000000
677,400.00000000,20.00000000,-2.50000000
678,400.00000000,20.00000000,0.00000000
679,400.00000000,17.50000000,-2.50000000
680,387.50000000,20.00000000,-2.50000000
681,400.00000000,17.50000000,0.00000000
682,387.50000000,20.00000000,0.00000000
683,400.00000000,20.00000000,-1.25000000
684,25.00000000,30.00000000,-2.50000000
685,0.00000000,30.00000000,-2.50000000
686,25.00000000,30.00000000,0.00000000
687,0.00000000,30.00000000,0.00000000
688,25.00000000,25.00000000,-2.50000000
689,12.50000000,30.00000000,-2.50000000
690,0.00000000,25.00000000,-2.50000000
691,25.00000000,25.00000000,0.00000000
692,12.50000000,30.00000000,0.00000000
693,0.00000000,25.00000000,0.00000000
694,25.00000000,30.00000000,-1.25000000
695,0.00000000,30.00000000,-1.25000000
696,50.00000000,30.00000000,-2.50000000
697,50.00000000,30.00000000,0.00000000
698,50.00000000,25.00000000,-2.50000000
699,37.50000000,30.00000000,-2.50000000
700,50.00000000,25.00000000,0.00000000
701,37.50000000,30.00000000,0.00000000
702,50.00000000,30.00000000,-1.25000000
703,75.00000000,30.00000000,-2.50000000
704,75.00000000,30.00000000,0.00000000
705,75.00000000,25.00000000,-2.50000000
706,62.50000000,30.00000000,-2.50000000
707,75.00000000,25.00000000,0.00000000
708,62.50000000,30.00000000,0.00000000
709,75.00000000,30.00000000,-1.25000000
710,100.00000000,30.00000000,-2.50000000
711,100.00000000,30.00000000,0.00000000
712,100.00000000,25.00000000,-2.50000000
713,87.50000000,30.00000000,-2.50000000
714,100.00000000,25.00000000,0.00000000
715,87.50000000,30.00000000,0.00000000
716,100.00000000,30.00000000,-1.25000000
717,125.00000000,30.00000000,-2.50000000
718,125.00000000,30.00000000,0.00000000
719,125.00000000,25.00000000,-2.50000000
720,112.50000000,30.00000000,-2.50000000
721,125.00000000,25.00000000,0.00000000
722,112.50000000,30.00000000,0.00000000
723,125.00000000,30.00000000,-1.25000000
724,150.00000000,30.00000000,-2.50000000
725,150.00000000,30.00000000,0.00000000
726,150.00000000,25.00000000,-2.50000000
727,137.50000000,30.00000000,-2.50000000
728,150.00000000,25.00000000,0.00000000
729,137.50000000,30.00000000,0.00000000
730,150.00000000,30.00000000,-1.25000000
731,175.00000000,30.00000000,-2.50000000
732,175.00000000,30.00000000,0.00000000
733,175.00000000,25.00000000,-2.50000000
734,162.50000000,30.00000000,-2.50000000
735,175.00000000,25.00000000,0.00000000
736,162.50000000,30.00000000,0.00000000
737,175.00000000,30.00000000,-1.25000000
738,190.00000000,30.00000000,-2.50000000
739,190.00000000,30.00000000,0.00000000
740,190.00000000,25.00000000,-2.50000000
741,182.50000000,30.00000000,-2.50000000
742,190.00000000,25.00000000,0.00000000
743,182.50000000,30.00000000,0.00000000
744,190.00000000,30.00000000,-1.25000000
745,200.00000000,30.00000000,-2.50000000
746,200.00000000,30.00000000,0.00000000
747,200.00000000,25.00000000,-2.50000000
748,195.00000000,30.00000000,-2.50000000
749,200.00000000,25.00000000,0.00000000
750,195.00000000,30.00000000,0.00000000
751,200.00000000,30.00000000,-1.25000000
752,210.00000000,30.00000000,-2.50000000
753,210.00000000,30.00000000,0.00000000
754,210.00000000,25.00000000,-2.50000000
755,205.00000000,30.00000000,-2.50000000
756,210.00000000,25.00000000,0.00000000
757,205.00000000,30.00000000,0.00000000
758,210.00000000,30.00000000,-1.25000000
759,225.00000000,30.00000000,-2.50000000
760,225.00000000,30.00000000,0.00000000
761,225.00000000,25.00000000,-2.50000000
762,217.50000000,30.00000000,-2.50000000
763,225.00000000,25.00000000,0.00000000
764,217.50000000,30.00000000,0.00000000
765,225.00000000,30.00000000,-1.25000000
766,250.00000000,30.00000000,-2.50000000
767,250.00000000,30.00000000,0.00000000
768,250.00000000,25.00000000,-2.50000000
769,237.50000000,30.00000000,-2.50000000
770,250.00000000,25.00000000,0.00000000
771,237.50000000,30.00000000,0.00000000
772,250.00000000,30.00000000,-1.25000000
773,275.00000000,30.00000000,-2.50000000
774,275.00000000,30.00000000,0.00000000
775,275.00000000,25.00000000,-2.50000000
776,262.50000000,30.00000000,-2.50000000
777,275.00000000,25.00000000,0.00000000
778,262.50000000,30.00000000,0.00000000
779,275.00000000,30.00000000,-1.25000000
780,290.00000000,30.00000000,-2.50000000
781,290.00000000,30.00000000,0.00000000
782,290.00000000,25.00000000,-2.50000000
783,282.50000000,30.00000000,-2.50000000
784,290.00000000,25.00000000,0.00000000
785,282.50000000,30.00000000,0.00000000
786,290.00000000,30.00000000,-1.25000000
787,300.00000000,30.00000000,-2.50000000
788,300.00000000,30.00000000,0.00000000
789,300.00000000,25.00000000,-2.50000000
790,295.00000000,30.00000000,-2.50000000
791,300.00000000,25.00000000,0.00000000
792,295.00000000,30.00000000,0.00000000
793,300.00000000,30.00000000,-1.25000000
794,310.00000000,30.00000000,-2.50000000
795,310.00000000,30.00000000,0.00000000
796,310.00000000,25.00000000,-2.50000000
797,305.00000000,30.00000000,-2.50000000
798,310.00000000,25.00000000,0.00000000
799,305.00000000,30.00000000,0.00000000
800,310.00000000,30.00000000,-1.25000000
801,325.00000000,30.00000000,-2.50000000
802,325.00000000,30.00000000,0.00000000
803,325.00000000,25.00000000,-2.50000000
804,317.50000000,30.00000000,-2.50000000
805,325.00000000,25.00000000,0.00000000
806,317.50000000,30.00000000,0.00000000
807,325.00000000,30.00000000,-1.25000000
808,350.00000000,30.00000000,-2.50000000
809,350.00000000,30.00000000,0.00000000
810,350.00000000,25.00000000,-2.50000000
811,337.50000000,30.00000000,-2.50000000
812,350.00000000,25.00000000,0.00000000
813,337.50000000,30.00000000,0.00000000
814,350.00000000,30.00000000,-1.25000000
815,375.00000000,30.00000000,-2.50000000
816,375.00000000,30.00000000,0.00000000
817,375.00000000,25.00000000,-2.50000000
818,362.50000000,30.00000000,-2.50000000
819,375.00000000,25.00000000,0.00000000
820,362.50000000,30.00000000,0.00000000
821,375.00000000,30.00000000,-1.25000000
822,400.00000000,30.00000000,-2.50000000
823,400.00000000,30.00000000,0.00000000
824,400.00000000,25.00000000,-2.50000000
825,387.50000000,30.00000000,-2.50000000
826,400.00000000,25.00000000,0.00000000
827,387.50000000,30.00000000,0.00000000
828,400.00000000,30.00000000,-1.25000000
829,25.00000000,50.00000000,-2.50000000
830,0.00000000,50.00000000,-2.50000000
831,25.00000000,50.00000000,0.00000000
832,0.00000000,50.00000000,0.00000000
833,25.00000000,40.00000000,-2.50000000
834,12.50000000,50.00000000,-2.50000000
835,0.00000000,40.00000000,-2.50000000
836,25.00000000,40.00000000,0.00000000
837,12.50000000,50.00000000,0.00000000
838,0.00000000,40.00000000,0.00000000
839,25.00000000,50.00000000,-1.25000000
840,0.00000000,50.00000000,-1.25000000
841,50.00000000,50.00000000,-2.50000000
842,50.00000000,50.00000000,0.00000000
843,50.00000000,40.00000000,-2.50000000
844,37.50000000,50.00000000,-2.50000000
845,50.00000000,40.00000000,0.00000000
846,37.50000000,50.00000000,0.00000000
847,50.00000000,50.00000000,-1.25000000
848,75.00000000,50.00000000,-2.50000000
849,75.00000000,50.00000000,0.00000000
850,75.00000000,40.00000000,-2.50000000
851,62.50000000,50.00000000,-2.50000000
852,75.00000000,40.00000000,0.00000000
853,62.50000000,50.00000000,0.00000000
854,75.00000000,50.00000000,-1.25000000
855,100.00000000,50.00000000,-2.50000000
856,100.00000000,50.00000000,0.00000000
857,100.00000000,40.00000000,-2.50000000
858,87.50000000,50.00000000,-2.50000000
859,100.00000000,40.00000000,0.00000000
860,87.50000000,50.00000000,0.00000000
861,100.00000000,50.00000000,-1.25000000
862,125.00000000,50.00000000,-2.50000000
863,125.00000000,50.00000000,0.00000000
864,125.00000000,40.00000000,-2.50000000
865,112.50000000,50.00000000,-2.50000000
866,125.00000000,40.00000000,0.00000000
867,112.50000000,50.00000000,0.00000000
868,125.00000000,50.00000000,-1.25000000
869,150.00000000,50.00000000,-2.50000000
870,150.00000000,50.00000000,0.00000000
871,150.00000000,40.00000000,-2.50000000
872,137.50000000,50.00000000,-2.50000000
873,150.00000000,40.00000000,0.00000000
874,137.50000000,50.00000000,0.00000000
875,150.00000000,50.00000000,-1.25000000
876,175.00000000,50.00000000,-2.50000000
877,175.00000000,50.00000000,0.00000000
878,175.00000000,40.00000000,-2.50000000
879,162.50000000,50.00000000,-2.50000000
880,175.00000000,40.00000000,0.00000000
881,162.50000000,50.00000000,0.00000000
882,175.00000000,50.00000000,-1.25000000
883,190.00000000,50.00000000,-2.50000000
884,190.00000000,50.00000000,0.00000000
885,190.00000000,40.00000000,-2.50000000
886,182.50000000,50.00000000,-2.50000000
887,190.00000000,40.00000000,0.00000000
888,182.50000000,50.00000000,0.00000000
889,190.00000000,50.00000000,-1.25000000
890,200.00000000,50.00000000,-2.50000000
891,200.00000000,50.00000000,0.00000000
892,200.00000000,40.00000000,-2.50000000
893,195.00000000,50.00000000,-2.50000000
894,200.00000000,40.00000000,0.00000000
895,195.00000000,50.00000000,0.00000000
896,200.00000000,50.00000000,-1.25000000
897,210.00000000,50.00000000,-2.50000000
898,210.00000000,50.00000000,0.00000000
899,210.00000000,40.00000000,-2.50000000
900,205.00000000,50.00000000,-2.50000000
901,210.00000000,40.00000000,0.00000000
902,205.00000000,50.00000000,0.00000000
903,210.00000000,50.00000000,-1.25000000
904,225.00000000,50.00000000,-2.50000000
905,225.00000000,50.00000000,0.00000000
906,225.00000000,40.00000000,-2.50000000
907,217.50000000,50.00000000,-2.50000000
908,225.00000000,40.00000000,0.00000000
909,217.50000000,50.00000000,0.00000000
910,225.00000000,50.00000000,-1.25000000
911,250.00000000,50.00000000,-2.50000000
912,250.00000000,50.00000000,0.00000000
913,250.00000000,40.00000000,-2.50000000
914,237.50000000,50.00000000,-2.50000000
915,250.00000000,40.00000000,0.00000000
916,237.50000000,50.00000000,0.00000000
917,250.00000000,50.00000000,-1.25000000
918,275.00000000,50.00000000,-2.50000000
919,275.00000000,50.00000000,0.00000000
920,275.00000000,40.00000000,-2.50000000
921,262.50000000,50.00000000,-2.50000000
922,275.00000000,40.00000000,0.00000000
923,262.50000000,50.00000000,0.00000000
924,275.00000000,50.00000000,-1.25000000
925,290.00000000,50.00000000,-2.50000000
926,290.00000000,50.00000000,0.00000000
927,290.00000000,40.00000000,-2.50000000
928,282.50000000,50.00000000,-2.50000000
929,290.00000000,40.00000000,0.00000000
930,282.50000000,50.00000000,0.00000000
931,290.00000000,50.00000000,-1.25000000
932,300.00000000,50.00000000,-2.50000000
933,300.00000000,50.00000000,0.00000000
934,300.00000000,40.00000000,-2.50000000
935,295.00000000,50.00000000,-2.50000000
936,300.00000000,40.00000000,0.00000000
937,295.00000000,50.00000000,0.00000000
938,300.00000000,50.00000000,-1.25000000
939,310.00000000,50.00000000,-2.50000000
940,310.00000000,50.00000000,0.00000000
941,310.00000000,40.00000000,-2.50000000
942,305.00000000,50.00000000,-2.50000000
943,310.00000000,40.00000000,0.00000000
944,305.00000000,50.00000000,0.00000000
945,310.00000000,50.00000000,-1.25000000
946,325.00000000,50.00000000,-2.50000000
947,325.00000000,50.00000000,0.00000000
948,325.00000000,40.00000000,-2.50000000
949,317.50000000,50.00000000,-2.50000000
950,325.00000000,40.00000000,0.00000000
951,317.50000000,50.00000000,0.00000000
952,325.00000000,50.00000000,-1.25000000
953,350.00000000,50.00000000,-2.50000000
954,350.00000000,50.00000000,0.00000000
955,350.00000000,40.00000000,-2.50000000
956,337.50000000,50.00000000,-2.50000000
957,350.00000000,40.00000000,0.00000000
958,337.50000000,50.00000000,0.00000000
959,350.00000000,50.00000000,-1.25000000
960,375.00000000,50.00000000,-2.50000000
961,375.00000000,50.00000000,0.00000000
962,375.00000000,40.00000000,-2.50000000
963,362.50000000,50.00000000,-2.50000000
964,375.00000000,40.00000000,0.00000000
965,362.50000000,50.00000000,0.00000000
966,375.00000000,50.00000000,-1.25000000
967,400.00000000,50.00000000,-2.50000000
968,400.00000000,50.00000000,0.00000000
969,400.00000000,40.00000000,-2.50000000
970,387.50000000,50.00000000,-2.50000000
971,400.00000000,40.00000000,0.00000000
972,387.50000000,50.00000000,0.00000000
973,400.00000000,50.00000000,-1.25000000
974,25.00000000,75.00000000,-2.50000000
975,0.00000000,75.00000000,-2.50000000
976,25.00000000,75.00000000,0.00000000
977,0.00000000,75.00000000,0.00000000
978,25.00000000,62.50000000,-2.50000000
979,12.50000000,75.00000000,-2.50000000
980,0.00000000,62.50000000,-2.50000000
981,25.00000000,62.50000000,0.00000000
982,12.50000000,75.00000000,0.00000000
983,0.00000000,62.50000000,0.00000000
984,25.00000000,75.00000000,-1.25000000
985,0.00000000,75.00000000,-1.25000000
986,50.00000000,75.00000000,-2.50000000
987,50.00000000,75.00000000,0.00000000
988,50.00000000,62.50000000,-2.50000000
989,37.50000000,75.00000000,-2.50000000
990,50.00000000,62.50000000,0.00000000
991,37.50000000,75.00000000,0.00000000
992,50.00000000,75.00000000,-1.25000000
993,75.00000000,75.00000000,-2.50000000
994,75.00000000,75.00000000,0.00000000
995,75.00000000,62.50000000,-2.50000000
996,62.50000000,75.00000000,-2.50000000
997,75.00000000,62.50000000,0.00000000
998,62.50000000,75.00000000,0.00000000
999,75.00000000,75.00000000,-1.25000000
1000,100.00000000,75.00000000,-2.50000000
1001,100.00000000,75.00000000,0.00000000
1002,100.00000000,62.50000000,-2.50000000
1003,87.50000000,75.00000000,-2.50000000
1004,100.00000000,62.50000000,0.00000000
1005,87.50000000,75.00000000,0.00000000
1006,100.00000000,75.00000000,-1.25000000
1007,125.00000000,75.00000000,-2.50000000
1008,125.00000000,75.00000000,0.00000000
1009,125.00000000,62.50000000,-2.50000000
1010,112.50000000,75.00000000,-2.50000000
1011,125.00000000,62.50000000,0.00000000
1012,112.50000000,75.00000000,0.00000000
1013,125.00000000,75.00000000,-1.25000000
1014,150.00000000,75.00000000,-2.50000000
1015,150.00000000,75.00000000,0.00000000
1016,150.00000000,62.50000000,-2.50000000
1017,137.50000000,75.00000000,-2.50000000
1018,150.00000000,62.50000000,0.00000000
1019,137.50000000,75.00000000,0.00000000
1020,150.00000000,75.00000000,-1.25000000
1021,175.00000000,75.00000000,-2.50000000
1022,175.00000000,75.00000000,0.00000000
1023,175.00000000,62.50000000,-2.50000000
1024,162.50000000,75.00000000,-2.50000000
1025,175.00000000,62.50000000,0.00000000
1026,162.50000000,75.00000000,0.00000000
1027,175.00000000,75.00000000,-1.25000000
1028,190.00000000,75.00000000,-2.50000000
1029,190.00000000,75.00000000,0.00000000
1030,190.00000000,62.50000000,-2.50000000
1031,182.50000000,75.00000000,-2.50000000
1032,190.00000000,62.50000000,0.00000000
1033,182.50000000,75.00000000,0.00000000
1034,190.00000000,75.00000000,-1.25000000
1035,200.00000000,75.00000000,-2.50000000
1036,200.00000000,75.00000000,0.00000000
1037,200.00000000,62.50000000,-2.50000000
1038,195.00000000,75.00000000,-2.50000000
1039,200.00000000,62.50000000,0.00000000
1040,195.00000000,75.00000000,0.00000000
1041,200.00000000,75.00000000,-1.25000000
1042,210.00000000,75.00000000,-2.50000000
1043,210.00000000,75.00000000,0.00000000
1044,210.00000000,62.50000000,-2.50000000
1045,205.00000000,75.00000000,-2.50000000
1046,210.00000000,62.50000000,0.00000000
1047,205.00000000,75.00000000,0.00000000
1048,210.00000000,75.00000000,-1.25000000
1049,225.00000000,75.00000000,-2.50000000
1050,225.00000000,75.00000000,0.00000000
1051,225.00000000,62.50000000,-2.50000000
1052,217.50000000,75.00000000,-2.50000000
1053,225.00000000,62.50000000,0.00000000
1054,217.50000000,75.00000000,0.00000000
1055,225.00000000,75.00000000,-1.25000000
1056,250.00000000,75.00000000,-2.50000000
1057,250.00000000,75.00000000,0.00000000
1058,250.00000000,62.50000000,-2.50000000
1059,237.50000000,75.00000000,-2.50000000
1060,250.00000000,62.50000000,0.00000000
1061,237.50000000,75.00000000,0.00000000
1062,250.00000000,75.00000000,-1.25000000
1063,275.00000000,75.00000000,-2.50000000
1064,275.00000000,75.00000000,0.00000000
1065,275.00000000,62.50000000,-2.50000000
1066,262.50000000,75.00000000,-2.50000000
1067,275.00000000,62.50000000,0.00000000
1068,262.50000000,75.00000000,0.00000000
1069,275.00000000,75.00000000,-1.25000000
1070,290.00000000,75.00000000,-2.50000000
1071,290.00000000,75.00000000,0.00000000
1072,290.00000000,62.50000000,-2.50000000
1073,282.50000000,75.00000000,-2.50000000
1074,290.00000000,62.50000000,0.00000000
1075,282.50000000,75.00000000,0.00000000
1076,290.00000000,75.00000000,-1.25000000
1077,300.00000000,75.00000000,-2.50000000
1078,300.00000000,75.00000000,0.00000000
1079,300.00000000,62.50000000,-2.50000000
1080,295.00000000,75.00000000,-2.50000000
1081,300.00000000,62.50000000,0.00000000
1082,295.00000000,75.00000000,0.00000000
1083,300.00000000,75.00000000,-1.25000000
1084,310.00000000,75.00000000,-2.50000000
1085,310.00000000,75.00000000,0.00000000
1086,310.00000000,62.50000000,-2.50000000
1087,305.00000000,75.00000000,-2.50000000
1088,310.00000000,62.50000000,0.00000000
1089,305.00000000,75.00000000,0.00000000
1090,310.00000000,75.00000000,-1.25000000
1091,325.00000000,75.00000000,-2.50000000
1092,325.00000000,75.00000000,0.00000000
1093,325.00000000,62.50000000,-2.50000000
1094,317.50000000,75.00000000,-2.50000000
1095,325.00000000,62.50000000,0.00000000
1096,317.50000000,75.00000000,0.00000000
1097,325.00000000,75.00000000,-1.25000000
1098,350.00000000,75.00000000,-2.50000000
1099,350.00000000,75.00000000,0.00000000
1100,350.00000000,62.50000000,-2.50000000
1101,337.50000000,75.00000000,-2.50000000
1102,350.00000000,62.50000000,0.00000000
1103,337.50000000,75.00000000,0.00000000
1104,350.00000000,75.00000000,-1.25000000
1105,375.00000000,75.00000000,-2.50000000
1106,375.00000000,75.00000000,0.00000000
1107,375.00000000,62.50000000,-2.50000000
1108,362.50000000,75.00000000,-2.50000000
1109,375.00000000,62.50000000,0.00000000
1110,362.50000000,75.00000000,0.00000000
1111,375.00000000,75.00000000,-1.25000000
1112,400.00000000,75.00000000,-2.50000000
1113,400.00000000,75.00000000,0.00000000
1114,400.00000000,62.50000000,-2.50000000
1115,387.50000000,75.00000000,-2.50000000
1116,400.00000000,62.50000000,0.00000000
1117,387.50000000,75.00000000,0.00000000
1118,400.00000000,75.00000000,-1.25000000
1119,25.00000000,90.00000000,-2.50000000
1120,0.00000000,90.00000000,-2.50000000
1121,25.00000000,90.00000000,0.00000000
1122,0.00000000,90.00000000,0.00000000
1123,25.00000000,82.50000000,-2.50000000
1124,12.50000000,90.00000000,-2.50000000
1125,0.00000000,82.50000000,-2.50000000
1126,25.00000000,82.50000000,0.00000000
1127,12.50000000,90.00000000,0.00000000
1128,0.00000000,82.50000000,0.00000000
1129,25.00000000,90.00000000,-1.25000000
1130,0.00000000,90.00000000,-1.25000000
1131,50.00000000,90.00000000,-2.50000000
1132,50.00000000,90.00000000,0.00000000
1133,50.00000000,82.50000000,-2.50000000
1134,37.50000000,90.00000000,-2.50000000
1135,50.00000000,82.50000000,0.00000000
1136,37.50000000,90.00000000,0.00000000
1137,50.00000000,90.00000000,-1.25000000
1138,75.00000000,90.00000000,-2.50000000
1139,75.00000000,90.00000000,0.00000000
1140,75.00000000,82.50000000,-2.50000000
1141,62.50000000,90.00000000,-2.50000000
1142,75.00000000,82.50000000,0.00000000
1143,62.50000000,90.00000000,0.00000000
1144,75.00000000,90.00000000,-1.25000000
1145,100.00000000,90.00000000,-2.50000000
1146,100.00000000,90.00000000,0.00000000
1147,100.00000000,82.50000000,-2.50000000
1148,87.50000000,90.00000000,-2.50000000
1149,100.00000000,82.50000000,0.00000000
1150,87.50000000,90.00000000,0.00000000
1151,100.00000000,90.00000000,-1.25000000
1152,125.00000000,90.00000000,-2.50000000
1153,125.00000000,90.00000000,0.00000000
1154,125.00000000,82.50000000,-2.50000000
1155,112.50000000,90.00000000,-2.50000000
1156,125.00000000,82.50000000,0.00000000
1157,112.50000000,90.00000000,0.00000000
1158,125.00000000,90.00000000,-1.25000000
1159,150.00000000,90.00000000,-2.50000000
1160,150.00000000,90.00000000,0.00000000
1161,150.00000000,82.50000000,-2.50000000
1162,137.50000000,90.00000000,-2.50000000
1163,150.00000000,82.50000000,0.00000000
1164,137.50000000,90.00000000,0.00000000
1165,150.00000000,90.00000000,-1.25000000
1166,175.00000000,90.00000000,-2.50000000
1167,175.00000000,90.00000000,0.00000000
1168,175.00000000,82.50000000,-2.50000000
1169,162.50000000,90.00000000,-2.50000000
1170,175.00000000,82.50000000,0.00000000
1171,162.50000000,90.00000000,0.00000000
1172,175.00000000,90.00000000,-1.25000000
1173,190.00000000,90.00000000,-2.50000000
1174,190.00000000,90.00000000,0.00000000
1175,190.00000000,82.50000000,-2.50000000
1176,182.50000000,90.00000000,-2.50000000
1177,190.00000000,82.50000000,0.00000000
1178,182.50000000,90.00000000,0.00000000
1179,190.00000000,90.00000000,-1.25000000
1180,200.00000000,90.00000000,-2.50000000
1181,200.00000000,90.00000000,0.00000000
1182,200.00000000,82.50000000,-2.50000000
1183,195.00000000,90.00000000,-2.50000000
1184,200.00000000,82.50000000,0.00000000
1185,195.00000000,90.00000000,0.00000000
1186,200.00000000,90.00000000,-1.25000000
1187,210.00000000,90.00000000,-2.50000000
1188,210.00000000,90.00000000,0.00000000
1189,210.00000000,82.50000000,-2.50000000
1190,205.00000000,90.00000000,-2.50000000
1191,210.00000000,82.50000000,0.00000000
1192,205.00000000,90.00000000,0.00000000
1193,210.00000000,90.00000000,-1.25000000
1194,225.00000000,90.00000000,-2.50000000
1195,225.00000000,90.00000000,0.00000000
1196,225.00000000,82.50000000,-2.50000000
1197,217.50000000,90.00000000,-2.50000000
1198,225.00000000,82.50000000,0.00000000
1199,217.50000000,90.00000000,0.00000000
1200,225.00000000,90.00000000,-1.25000000
1201,250.00000000,90.00000000,-2.50000000
1202,250.00000000,90.00000000,0.00000000
1203,250.00000000,82.50000000,-2.50000000
1204,237.50000000,90.00000000,-2.50000000
1205,250.00000000,82.50000000,0.00000000
1206,237.50000000,90.00000000,0.00000000
1207,250.00000000,90.00000000,-1.25000000
1208,275.00000000,90.00000000,-2.50000000
1209,275.00000000,90.00000000,0.00000000
1210,275.00000000,82.50000000,-2.50000000
1211,262.50000000,90.00000000,-2.50000000
1212,275.00000000,82.50000000,0.00000000
1213,262.50000000,90.00000000,0.00000000
1214,275.00000000,90.00000000,-1.25000000
1215,290.00000000,90.00000000,-2.50000000
1216,290.00000000,90.00000000,0.00000000
1217,290.00000000,82.50000000,-2.50000000
1218,282.50000000,90.00000000,-2.50000000
1219,290.00000000,82.50000000,0.00000000
1220,282.50000000,90.00000000,0.00000000
1221,290.00000000,90.00000000,-1.25000000
1222,300.00000000,90.00000000,-2.50000000
1223,300.00000000,90.00000000,0.00000000
1224,300.00000000,82.50000000,-2.50000000
1225,295.00000000,90.00000000,-2.50000000
1226,300.00000000,82.50000000,0.00000000
1227,295.00000000,90.00000000,0.00000000
1228,300.00000000,90.00000000,-1.25000000
1229,310.00000000,90.00000000,-2.50000000
1230,310.00000000,90.00000000,0.00000000
1231,310.00000000,82.50000000,-2.50000000
1232,305.00000000,90.00000000,-2.50000000
1233,310.00000000,82.50000000,0.00000000
1234,305.00000000,90.00000000,0.00000000
1235,310.00000000,90.00000000,-1.25000000
1236,325.00000000,90.00000000,-2.50000000
1237,325.00000000,90.00000000,0.00000000
1238,325.00000000,82.50000000,-2.50000000
1239,317.50000000,90.00000000,-2.50000000
1240,325.00000000,82.50000000,0.00000000
1241,317.50000000,90.00000000,0.00000000
1242,325.00000000,90.00000000,-1.25000000
1243,350.00000000,90.00000000,-2.50000000
1244,350.00000000,90.00000000,0.00000000
1245,350.00000000,82.50000000,-2.50000000
1246,337.50000000,90.00000000,-2.50000000
1247,350.00000000,82.50000000,0.00000000
1248,337.50000000,90.00000000,0.00000000
1249,350.00000000,90.00000000,-1.25000000
1250,375.00000000,90.00000000,-2.50000000
1251,375.00000000,90.00000000,0.00000000
1252,375.00000000,82.50000000,-2.50000000
1253,362.50000000,90.00000000,-2.50000000
1254,375.00000000,82.50000000,0.00000000
1255,362.50000000,90.00000000,0.00000000
1256,375.00000000,90.00000000,-1.25000000
1257,400.00000000,90.00000000,-2.50000000
1258,400.00000000,90.00000000,0.00000000
1259,400.00000000,82.50000000,-2.50000000
1260,387.50000000,90.00000000,-2.50000000
1261,400.00000000,82.50000000,0.00000000
1262,387.50000000,90.00000000,0.00000000
1263,400.00000000,90.00000000,-1.25000000
1264,25.00000000,100.00000000,-2.50000000
1265,0.00000000,100.00000000,-2.50000000
1266,25.00000000,100.00000000,0.00000000
1267,0.00000000,100.00000000,0.00000000
1268,25.00000000,95.00000000,-2.50000000
1269,12.50000000,100.00000000,-2.50000000
1270,0.00000000,95.00000000,-2.50000000
1271,25.00000000,95.00000000,0.00000000
1272,12.50000000,100.00000000,0.00000000
1273,0.00000000,95.00000000,0.00000000
1274,25.00000000,100.00000000,-1.25000000
1275,0.00000000,100.00000000,-1.25000000
1276,50.00000000,100.00000000,-2.50000000
1277,50.00000000,100.00000000,0.00000000
1278,50.00000000,95.00000000,-2.50000000
1279,37.50000000,100.00000000,-2.50000000
1280,50.00000000,95.00000000,0.00000000
1281,37.50000000,100.00000000,0.00000000
1282,50.00000000,100.00000000,-1.25000000
1283,75.00000000,100.00000000,-2.50000000
1284,75.00000000,100.00000000,0.00000000
1285,75.00000000,95.00000000,-2.50000000
1286,62.50000000,100.00000000,-2.50000000
1287,75.00000000,95.00000000,0.00000000
1288,62.50000000,100.00000000,0.00000000
1289,75.00000000,100.00000000,-1.25000000
1290,100.00000000,100.00000000,-2.50000000
1291,100.00000000,100.00000000,0.00000000
1292,100.00000000,95.00000000,-2.50000000
1293,87.50000000,100.00000000,-2.50000000
1294,100.00000000,95.00000000,0.00000000
1295,87.50000000,100.00000000,0.00000000
1296,100.00000000,100.00000000,-1.25000000
1297,125.00000000,100.00000000,-2.50000000
1298,125.00000000,100.00000000,0.00000000
1299,125.00000000,95.00000000,-2.50000000
1300,112.50000000,100.00000000,-2.50000000
1301,125.00000000,95.00000000,0.00000000
1302,112.50000000,100.00000000,0.00000000
1303,125.00000000,100.00000000,-1.25000000
1304,150.00000000,100.00000000,-2.50000000
1305,150.00000000,100.00000000,0.00000000
1306,150.00000000,95.00000000,-2.50000000
1307,137.50000000,100.00000000,-2.50000000
1308,150.00000000,95.00000000,0.00000000
1309,137.50000000,100.00000000,0.00000000
1310,150.00000000,100.00000000,-1.25000000
1311,175.00000000,100.00000000,-2.50000000
1312,175.00000000,100.00000000,0.00000000
1313,175.00000000,95.00000000,-2.50000000
1314,162.50000000,100.00000000,-2.50000000
1315,175.00000000,95.00000000,0.00000000
1316,162.50000000,100.00000000,0.00000000
1317,175.00000000,100.00000000,-1.25000000
1318,190.00000000,100.00000000,-2.50000000
1319,190.00000000,100.00000000,0.00000000
1320,190.00000000,95.00000000,-2.50000000
1321,182.50000000,100.00000000,-2.50000000
1322,190.00000000,95.00000000,0.00000000
1323,182.50000000,100.00000000,0.00000000
1324,190.00000000,100.00000000,-1.25000000
1325,200.00000000,100.00000000,-2.50000000
1326,200.00000000,100.00000000,0.00000000
1327,200.00000000,95.00000000,-2.50000000
1328,195.00000000,100.00000000,-2.50000000
1329,200.00000000,95.00000000,0.00000000
1330,195.00000000,100.00000000,0.00000000
1331,200.00000000,100.00000000,-1.25000000
1332,210.00000000,100.00000000,-2.50000000
1333,210.00000000,100.00000000,0.00000000
1334,210.00000000,95.00000000,-2.50000000
1335,205.00000000,100.00000000,-2.50000000
1336,210.00000000,95.00000000,0.00000000
1337,205.00000000,100.00000000,0.00000000
1338,210.00000000,100.00000000,-1.25000000
1339,225.00000000,100.00000000,-2.50000000
1340,225.00000000,100.00000000,0.00000000
1341,225.00000000,95.00000000,-2.50000000
1342,217.50000000,100.00000000,-2.50000000
1343,225.00000000,95.00000000,0.00000000
1344,217.50000000,100.00000000,0.00000000
1345,225.00000000,100.00000000,-1.25000000
1346,250.00000000,100.00000000,-2.50000000
1347,250.00000000,100.00000000,0.00000000
1348,250.00000000,95.00000000,-2.50000000
1349,237.50000000,100.00000000,-2.50000000
1350,250.00000000,95.00000000,0.00000000
1351,237.50000000,100.00000000,0.00000000
1352,250.00000000,100.00000000,-1.25000000
1353,275.00000000,100.00000000,-2.50000000
1354,275.00000000,100.00000000,0.00000000
1355,275.00000000,95.00000000,-2.50000000
1356,262.50000000,100.00000000,-2.50000000
1357,275.00000000,95.00000000,0.00000000
1358,262.50000000,100.00000000,0.00000000
1359,275.00000000,100.00000000,-1.25000000
1360,290.00000000,100.00000000,-2.50000000
1361,290.00000000,100.00000000,0.00000000
1362,290.00000000,95.00000000,-2.50000000
1363,282.50000000,100.00000000,-2.50000000
1364,290.00000000,95.00000000,0.00000000
1365,282.50000000,100.00000000,0.00000000
1366,290.00000000,100.00000000,-1.25000000
1367,300.00000000,100.00000000,-2.50000000
1368,300.00000000,100.00000000,0.00000000
1369,300.00000000,95.00000000,-2.50000000
1370,295.00000000,100.00000000,-2.50000000
1371,300.00000000,95.00000000,0.00000000
1372,295.00000000,100.00000000,0.00000000
1373,300.00000000,100.00000000,-1.25000000
1374,310.00000000,100.00000000,-2.50000000
1375,310.00000000,100.00000000,0.00000000
1376,310.00000000,95.00000000,-2.50000000
1377,305.00000000,100.00000000,-2.50000000
1378,310.00000000,95.00000000,0.00000000
1379,305.00000000,100.00000000,0.00000000
1380,310.00000000,100.00000000,-1.25000000
1381,325.00000000,100.00000000,-2.50000000
1382,325.00000000,100.00000000,0.00000000
1383,325.00000000,95.00000000,-2.50000000
1384,317.50000000,100.00000000,-2.50000000
1385,325.00000000,95.00000000,0.00000000
1386,317.50000000,100.00000000,0.00000000
1387,325.00000000,100.00000000,-1.25000000
1388,350.00000000,100.00000000,-2.50000000
1389,350.00000000,100.00000000,0.00000000
1390,350.00000000,95.00000000,-2.50000000
1391,337.50000000,100.00000000,-2.50000000
1392,350.00000000,95.00000000,0.00000000
1393,337.50000000,100.00000000,0.00000000
1394,350.00000000,100.00000000,-1.25000000
1395,375.00000000,100.00000000,-2.50000000
1396,375.00000000,100.00000000,0.00000000
1397,375.00000000,95.00000000,-2.50000000
1398,362.50000000,100.00000000,-2.50000000
1399,375.00000000,95.00000000,0.00000000
1400,362.50000000,100.00000000,0.00000000
1401,375.00000000,100.00000000,-1.25000000
1402,400.00000000,100.00000000,-2.50000000
1403,400.00000000,100.00000000,0.00000000
1404,400.00000000,95.00000000,-2.50000000
1405,387.50000000,100.00000000,-2.50000000
1406,400.00000000,95.00000000,0.00000000
1407,387.50000000,100.00000000,0.00000000
1408,400.00000000,100.00000000,-1.25000000
1409,25.00000000,110.00000000,-2.50000000
1410,0.00000000,110.00000000,-2.50000000
1411,25.00000000,110.00000000,0.00000000
1412,0.00000000,110.00000000,0.00000000
1413,25.00000000,105.00000000,-2.50000000
1414,12.50000000,110.00000000,-2.50000000
1415,0.00000000,105.00000000,-2.50000000
1416,25.00000000,105.00000000,0.00000000
1417,12.50000000,110.00000000,0.00000000
1418,0.00000000,105.00000000,0.00000000
1419,25.00000000,110.00000000,-1.25000000
1420,0.00000000,110.00000000,-1.25000000
1421,50.00000000,110.00000000,-2.50000000
1422,50.00000000,110.00000000,0.00000000
1423,50.00000000,105.00000000,-2.50000000
1424,37.50000000,110.00000000,-2.50000000
1425,50.00000000,105.00000000,0.00000000
1426,37.50000000,110.00000000,0.00000000
1427,50.00000000,110.00000000,-1.25000000
1428,75.00000000,110.00000000,-2.50000000
1429,75.00000000,110.00000000,0.00000000
1430,75.00000000,105.00000000,-2.50000000
1431,62.50000000,110.00000000,-2.50000000
1432,75.00000000,105.00000000,0.00000000
1433,62.50000000,110.00000000,0.00000000
1434,75.00000000,110.00000000,-1.25000000
1435,100.00000000,110.00000000,-2.50000000
1436,100.00000000,110.00000000,0.00000000
1437,100.00000000,105.00000000,-2.50000000
1438,87.50000000,110.00000000,-2.50000000
1439,100.00000000,105.00000000,0.00000000
1440,87.50000000,110.00000000,0.00000000
1441,100.00000000,110.00000000,-1.25000000
1442,125.00000000,110.00000000,-2.50000000
1443,125.00000000,110.00000000,0.00000000
1444,125.00000000,105.00000000,-2.50000000
1445,112.50000000,110.00000000,-2.50000000
1446,125.00000000,105.00000000,0.00000000
1447,112.50000000,110.00000000,0.00000000
1448,125.00000000,110.00000000,-1.25000000
1449,150.00000000,110.00000000,-2.50000000
1450,150.00000000,110.00000000,0.00000000
1451,150.00000000,105.00000000,-2.50000000
1452,137.50000000,110.00000000,-2.50000000
1453,150.00000000,105.00000000,0.00000000
1454,137.50000000,110.00000000,0.00000000
1455,150.00000000,110.00000000,-1.25000000
1456,175.00000000,110.00000000,-2.50000000
1457,175.00000000,110.00000000,0.00000000
1458,175.00000000,105.00000000,-2.50000000
1459,162.50000000,110.00000000,-2.50000000
1460,175.00000000,105.00000000,0.00000000
1461,162.50000000,110.00000000,0.00000000
1462,175.00000000,110.00000000,-1.25000000
1463,190.00000000,110.00000000,-2.50000000
1464,190.00000000,110.00000000,0.00000000
1465,190.00000000,105.00000000,-2.50000000
1466,182.50000000,110.00000000,-2.50000000
1467,190.00000000,105.00000000,0.00000000
1468,182.50000000,110.00000000,0.00000000
1469,190.00000000,110.00000000,-1.25000000
1470,200.00000000,110.00000000,-2.50000000
1471,200.00000000,110.00000000,0.00000000
1472,200.00000000,105.00000000,-2.50000000
1473,195.00000000,110.00000000,-2.50000000
1474,200.00000000,105.00000000,0.00000000
1475,195.00000000,110.00000000,0.00000000
1476,200.00000000,110.00000000,-1.25000000
1477,210.00000000,110.00000000,-2.50000000
1478,210.00000000,110.00000000,0.00000000
1479,210.00000000,105.00000000,-2.50000000
1480,205.00000000,110.00000000,-2.50000000
1481,210.00000000,105.00000000,0.00000000
1482,205.00000000,110.00000000,0.00000000
1483,210.00000000,110.00000000,-1.25000000
1484,225.00000000,110.00000000,-2.50000000
1485,225.00000000,110.00000000,0.00000000
1486,225.00000000,105.00000000,-2.50000000
1487,217.50000000,110.00000000,-2.50000000
1488,225.00000000,105.00000000,0.00000000
1489,217.50000000,110.00000000,0.00000000
1490,225.00000000,110.00000000,-1.25000000
1491,250.00000000,110.00000000,-2.50000000
1492,250.00000000,110.00000000,0.00000000
1493,250.00000000,105.00000000,-2.50000000
1494,237.50000000,110.00000000,-2.50000000
1495,250.00000000,105.00000000,0.00000000
1496,237.50000000,110.00000000,0.00000000
1497,250.00000000,110.00000000,-1.25000000
1498,275.00000000,110.00000000,-2.50000000
1499,275.00000000,110.00000000,0.00000000
1500,275.00000000,105.00000000,-2.50000000
1501,262.50000000,110.00000000,-2.50000000
1502,275.00000000,105.00000000,0.00000000
1503,262.50000000,110.00000000,0.00000000
1504,275.00000000,110.00000000,-1.25000000
1505,290.00000000,110.00000000,-2.50000000
1506,290.00000000,110.00000000,0.00000000
1507,290.00000000,105.00000000,-2.50000000
1508,282.50000000,110.00000000,-2.50000000
1509,290.00000000,105.00000000,0.00000000
1510,282.50000000,110.00000000,0.00000000
1511,290.00000000,110.00000000,-1.25000000
1512,300.00000000,110.00000000,-2.50000000
1513,300.00000000,110.00000000,0.00000000
1514,300.00000000,105.00000000,-2.50000000
1515,295.00000000,110.00000000,-2.50000000
1516,300.00000000,105.00000000,0.00000000
1517,295.00000000,110.00000000,0.00000000
1518,300.00000000,110.00000000,-1.25000000
1519,310.00000000,110.00000000,-2.50000000
1520,310.00000000,110.00000000,0.00000000
1521,310.00000000,105.00000000,-2.50000000
1522,305.00000000,110.00000000,-2.50000000
1523,310.00000000,105.00000000,0.00000000
1524,305.00000000,110.00000000,0.00000000
1525,310.00000000,110.00000000,-1.25000000
1526,325.00000000,110.00000000,-2.50000000
1527,325.00000000,110.00000000,0.00000000
1528,325.00000000,105.00000000,-2.50000000
1529,317.50000000,110.00000000,-2.50000000
1530,325.00000000,105.00000000,0.00000000
1531,317.50000000,110.00000000,0.00000000
1532,325.00000000,110.00000000,-1.25000000
1533,350.00000000,110.00000000,-2.50000000
1534,350.00000000,110.00000000,0.00000000
1535,350.00000000,105.00000000,-2.50000000
1536,337.50000000,110.00000000,-2.50000000
1537,350.00000000,105.00000000,0.00000000
1538,337.50000000,110.00000000,0.00000000
1539,350.00000000,110.00000000,-1.25000000
1540,375.00000000,110.00000000,-2.50000000
1541,375.00000000,110.00000000,0.00000000
1542,375.00000000,105.00000000,-2.50000000
1543,362.50000000,110.00000000,-2.50000000
1544,375.00000000,105.00000000,0.00000000
1545,362.50000000,110.00000000,0.00000000
1546,375.00000000,110.00000000,-1.25000000
1547,400.00000000,110.00000000,-2.50000000
1548,400.00000000,110.00000000,0.00000000
1549,400.00000000,105.00000000,-2.50000000
1550,387.50000000,110.00000000,-2.50000000
1551,400.00000000,105.00000000,0.00000000
1552,387.50000000,110.00000000,0.00000000
1553,400.00000000,110.00000000,-1.25000000
1554,25.00000000,125.00000000,-2.50000000
1555,0.00000000,125.00000000,-2.50000000
1556,25.00000000,125.00000000,0.00000000
1557,0.00000000,125.00000000,0.00000000
1558,25.00000000,117.50000000,-2.50000000
1559,12.50000000,125.00000000,-2.50000000
1560,0.00000000,117.50000000,-2.50000000
1561,25.00000000,117.50000000,0.00000000
1562,12.50000000,125.00000000,0.00000000
1563,0.00000000,117.50000000,0.00000000
1564,25.00000000,125.00000000,-1.25000000
1565,0.00000000,125.00000000,-1.25000000
1566,50.00000000,125.00000000,-2.50000000
1567,50.00000000,125.00000000,0.00000000
1568,50.00000000,117.50000000,-2.50000000
1569,37.50000000,125.00000000,-2.50000000
1570,50.00000000,117.50000000,0.00000000
1571,37.50000000,125.00000000,0.00000000
1572,50.00000000,125.00000000,-1.25000000
1573,75.00000000,125.00000000,-2.50000000
1574,75.00000000,125.00000000,0.00000000
1575,75.00000000,117.50000000,-2.50000000
1576,62.50000000,125.00000000,-2.50000000
1577,75.00000000,117.50000000,0.00000000
1578,62.50000000,125.00000000,0.00000000
1579,75.00000000,125.00000000,-1.25000000
1580,100.00000000,125.00000000,-2.50000000
1581,100.00000000,125.00000000,0.00000000
1582,100.00000000,117.50000000,-2.50000000
1583,87.50000000,125.00000000,-2.50000000
1584,100.00000000,117.50000000,0.00000000
1585,87.50000000,125.00000000,0.00000000
1586,100.00000000,125.00000000,-1.25000000
1587,125.00000000,125.00000000,-2.50000000
1588,125.00000000,125.00000000,0.00000000
1589,125.00000000,117.50000000,-2.50000000
1590,112.50000000,125.00000000,-2.50000000
1591,125.00000000,117.50000000,0.00000000
1592,112.50000000,125.00000000,0.00000000
1593,125.00000000,125.00000000,-1.25000000
1594,150.00000000,125.00000000,-2.50000000
1595,150.00000000,125.00000000,0.00000000
1596,150.00000000,117.50000000,-2.50000000
1597,137.50000000,125.00000000,-2.50000000
1598,150.00000000,117.50000000,0.00000000
1599,137.50000000,125.00000000,0.00000000
1600,150.00000000,125.00000000,-1.25000000
1601,175.00000000,125.00000000,-2.50000000
1602,175.00000000,125.00000000,0.00000000
1603,175.00000000,117.50000000,-2.50000000
1604,162.50000000,125.00000000,-2.50000000
1605,175.00000000,117.50000000,0.00000000
1606,162.50000000,125.00000000,0.00000000
1607,175.00000000,125.00000000,-1.25000000
1608,190.00000000,125.00000000,-2.50000000
1609,190.00000000,125.00000000,0.00000000
1610,190.00000000,117.50000000,-2.50000000
1611,182.50000000,125.00000000,-2.50000000
1612,190.00000000,117.50000000,0.00000000
1613,182.50000000,125.00000000,0.00000000
1614,190.00000000,125.00000000,-1.25000000
1615,200.00000000,125.00000000,-2.50000000
1616,200.00000000,125.00000000,0.00000000
1617,200.00000000,117.50000000,-2.50000000
1618,195.00000000,125.00000000,-2.50000000
1619,200.00000000,117.50000000,0.00000000
1620,195.00000000,125.00000000,0.00000000
1621,200.00000000,125.00000000,-1.25000000
1622,210.00000000,125.00000000,-2.50000000
1623,210.00000000,125.00000000,0.00000000
1624,210.00000000,117.50000000,-2.50000000
1625,205.00000000,125.00000000,-2.50000000
1626,210.00000000,117.50000000,0.00000000
1627,205.00000000,125.00000000,0.00000000
1628,210.00000000,125.00000000,-1.25000000
1629,225.00000000,125.00000000,-2.50000000
1630,225.00000000,125.00000000,0.00000000
1631,225.00000000,117.50000000,-2.50000000
1632,217.50000000,125.00000000,-2.50000000
1633,225.00000000,117.50000000,0.00000000
1634,217.50000000,125.00000000,0.00000000
1635,225.00000000,125.00000000,-1.25000000
1636,250.00000000,125.00000000,-2.50000000
1637,250.00000000,125.00000000,0.00000000
1638,250.00000000,117.50000000,-2.50000000
1639,237.50000000,125.00000000,-2.50000000
1640,250.00000000,117.50000000,0.00000000
1641,237.50000000,125.00000000,0.00000000
1642,250.00000000,125.00000000,-1.25000000
1643,275.00000000,125.00000000,-2.50000000
1644,275.00000000,125.00000000,0.00000000
1645,275.00000000,117.50000000,-2.50000000
1646,262.50000000,125.00000000,-2.50000000
1647,275.00000000,117.50000000,0.00000000
1648,262.50000000,125.00000000,0.00000000
1649,275.00000000,125.00000000,-1.25000000
1650,290.00000000,125.00000000,-2.50000000
1651,290.00000000,125.00000000,0.00000000
1652,290.00000000,117.50000000,-2.50000000
1653,282.50000000,125.00000000,-2.50000000
1654,290.00000000,117.50000000,0.00000000
1655,282.50000000,125.00000000,0.00000000
1656,290.00000000,125.00000000,-1.25000000
1657,300.00000000,125.00000000,-2.50000000
1658,300.00000000,125.00000000,0.00000000
1659,300.00000000,117.50000000,-2.50000000
1660,295.00000000,125.00000000,-2.50000000
1661,300.00000000,117.50000000,0.00000000
1662,295.00000000,125.00000000,0.00000000
1663,300.00000000,125.00000000,-1.25000000
1664,310.00000000,125.00000000,-2.50000000
1665,310.00000000,125.00000000,0.00000000
1666,310.00000000,117.50000000,-2.50000000
1667,305.00000000,125.00000000,-2.50000000
1668,310.00000000,117.50000000,0.00000000
1669,305.00000000,125.00000000,0.00000000
1670,310.00000000,125.00000000,-1.25000000
1671,325.00000000,125.00000000,-2.50000000
1672,325.00000000,125.00000000,0.00000000
1673,325.00000000,117.50000000,-2.50000000
1674,317.50000000,125.00000000,-2.50000000
1675,325.00000000,117.50000000,0.00000000
1676,317.50000000,125.00000000,0.00000000
1677,325.00000000,125.00000000,-1.25000000
1678,350.00000000,125.00000000,-2.50000000
1679,350.00000000,125.00000000,0.00000000
1680,350.00000000,117.50000000,-2.50000000
1681,337.50000000,125.00000000,-2.50000000
1682,350.00000000,117.50000000,0.00000000
1683,337.50000000,125.00000000,0.00000000
1684,350.00000000,125.00000000,-1.25000000
1685,375.00000000,125.00000000,-2.50000000
1686,375.00000000,125.00000000,0.00000000
1687,375.00000000,117.50000000,-2.50000000
1688,362.50000000,125.00000000,-2.50000000
1689,375.00000000,117.50000000,0.00000000
1690,362.50000000,125.00000000,0.00000000
1691,375.00000000,125.00000000,-1.25000000
1692,400.00000000,125.00000000,-2.50000000
1693,400.00000000,125.00000000,0.00000000
1694,400.00000000,117.50000000,-2.50000000
1695,387.50000000,125.00000000,-2.50000000
1696,400.00000000,117.50000000,0.00000000
1697,387.50000000,125.00000000,0.00000000
1698,400.00000000,125.00000000,-1.25000000
1699,25.00000000,150.00000000,-2.50000000
1700,0.00000000,150.00000000,-2.50000000
1701,25.00000000,150.00000000,0.00000000
1702,0.00000000,150.00000000,0.00000000
1703,25.00000000,137.50000000,-2.50000000
1704,12.50000000,150.00000000,-2.50000000
1705,0.00000000,137.50000000,-2.50000000
1706,25.00000000,137.50000000,0.00000000
1707,12.50000000,150.00000000,0.00000000
1708,0.00000000,137.50000000,0.00000000
1709,25.00000000,150.00000000,-1.25000000
1710,0.00000000,150.00000000,-1.25000000
1711,50.00000000,150.00000000,-2.50000000
1712,50.00000000,150.00000000,0.00000000
1713,50.00000000,137.50000000,-2.50000000
1714,37.50000000,150.00000000,-2.50000000
1715,50.00000000,137.50000000,0.00000000
1716,37.50000000,150.00000000,0.00000000
1717,50.00000000,150.00000000,-1.25000000
1718,75.00000000,150.00000000,-2.50000000
1719,75.00000000,150.00000000,0.00000000
1720,75.00000000,137.50000000,-2.50000000
1721,62.50000000,150.00000000,-2.50000000
1722,75.00000000,137.50000000,0.00000000
1723,62.50000000,150.00000000,0.00000000
1724,75.00000000,150.00000000,-1.25000000
1725,100.00000000,150.00000000,-2.50000000
1726,100.00000000,150.00000000,0.00000000
1727,100.00000000,137.50000000,-2.50000000
1728,87.50000000,150.00000000,-2.50000000
1729,100.00000000,137.50000000,0.00000000
1730,87.50000000,150.00000000,0.00000000
1731,100.00000000,150.00000000,-1.25000000
1732,125.00000000,150.00000000,-2.50000000
1733,125.00000000,150.00000000,0.00000000
1734,125.00000000,137.50000000,-2.50000000
1735,112.50000000,150.00000000,-2.50000000
1736,125.00000000,137.50000000,0.00000000
1737,112.50000000,150.00000000,0.00000000
1738,125.00000000,150.00000000,-1.25000000
1739,150.00000000,150.00000000,-2.50000000
1740,150.00000000,150.00000000,0.00000000
1741,150.00000000,137.50000000,-2.50000000
1742,137.50000000,150.00000000,-2.50000000
1743,150.00000000,137.50000000,0.00000000
1744,137.50000000,150.00000000,0.00000000
1745,150.00000000,150.00000000,-1.25000000
1746,175.00000000,150.00000000,-2.50000000
1747,175.00000000,150.00000000,0.00000000
1748,175.00000000,137.50000000,-2.50000000
1749,162.50000000,150.00000000,-2.50000000
1750,175.00000000,137.50000000,0.00000000
1751,162.50000000,150.00000000,0.00000000
1752,175.00000000,150.00000000,-1.25000000
1753,190.00000000,150.00000000,-2.50000000
1754,190.00000000,150.00000000,0.00000000
1755,190.00000000,137.50000000,-2.50000000
1756,182.50000000,150.00000000,-2.50000000
1757,190.00000000,137.50000000,0.00000000
1758,182.50000000,150.00000000,0.00000000
1759,190.00000000,150.00000000,-1.25000000
1760,200.00000000,150.00000000,-2.50000000
1761,200.00000000,150.00000000,0.00000000
1762,200.00000000,137.50000000,-2.50000000
1763,195.00000000,150.00000000,-2.50000000
1764,200.00000000,137.50000000,0.00000000
1765,195.00000000,150.00000000,0.00000000
1766,200.00000000,150.00000000,-1.25000000
1767,210.00000000,150.00000000,-2.50000000
1768,210.00000000,150.00000000,0.00000000
1769,210.00000000,137.50000000,-2.50000000
1770,205.00000000,150.00000000,-2.50000000
1771,210.00000000,137.50000000,0.00000000
1772,205.00000000,150.00000000,0.00000000
1773,210.00000000,150.00000000,-1.25000000
1774,225.00000000,150.00000000,-2.50000000
1775,225.00000000,150.00000000,0.00000000
1776,225.00000000,137.50000000,-2.50000000
1777,217.50000000,150.00000000,-2.50000000
1778,225.00000000,137.50000000,0.00000000
1779,217.50000000,150.00000000,0.00000000
1780,225.00000000,150.00000000,-1.25000000
1781,250.00000000,150.00000000,-2.50000000
1782,250.00000000,150.00000000,0.00000000
1783,250.00000000,137.50000000,-2.50000000
1784,237.50000000,150.00000000,-2.50000000
1785,250.00000000,137.50000000,0.00000000
1786,237.50000000,150.00000000,0.00000000
1787,250.00000000,150.00000000,-1.25000000
1788,275.00000000,150.00000000,-2.50000000
1789,275.00000000,150.00000000,0.00000000
1790,275.00000000,137.50000000,-2.50000000
1791,262.50000000,150.00000000,-2.50000000
1792,275.00000000,137.50000000,0.00000000
1793,262.50000000,150.00000000,0.00000000
1794,275.00000000,150.00000000,-1.25000000
1795,290.00000000,150.00000000,-2.50000000
1796,290.00000000,150.00000000,0.00000000
1797,290.00000000,137.50000000,-2.50000000
1798,282.50000000,150.00000000,-2.50000000
1799,290.00000000,137.50000000,0.00000000
1800,282.50000000,150.00000000,0.00000000
1801,290.00000000,150.00000000,-1.25000000
1802,300.00000000,150.00000000,-2.50000000
1803,300.00000000,150.00000000,0.00000000
1804,300.00000000,137.50000000,-2.50000000
1805,295.00000000,150.00000000,-2.50000000
1806,300.00000000,137.50000000,0.00000000
1807,295.00000000,150.00000000,0.00000000
1808,300.00000000,150.00000000,-1.25000000
1809,310.00000000,150.00000000,-2.50000000
1810,310.00000000,150.00000000,0.00000000
1811,310.00000000,137.50000000,-2.50000000
1812,305.00000000,150.00000000,-2.50000000
1813,310.00000000,137.50000000,0.00000000
1814,305.00000000,150.00000000,0.00000000
1815,310.00000000,150.00000000,-1.25000000
1816,325.00000000,150.00000000,-2.50000000
1817,325.00000000,150.00000000,0.00000000
1818,325.00000000,137.50000000,-2.50000000
1819,317.50000000,150.00000000,-2.50000000
1820,325.00000000,137.50000000,0.00000000
1821,317.50000000,150.00000000,0.00000000
1822,325.00000000,150.00000000,-1.25000000
1823,350.00000000,150.00000000,-2.50000000
1824,350.00000000,150.00000000,0.00000000
1825,350.00000000,137.50000000,-2.50000000
1826,337.50000000,150.00000000,-2.50000000
1827,350.00000000,137.50000000,0.00000000
1828,337.50000000,150.00000000,0.00000000
1829,350.00000000,150.00000000,-1.25000000
1830,375.00000000,150.00000000,-2.50000000
1831,375.00000000,150.00000000,0.00000000
1832,375.00000000,137.50000000,-2.50000000
1833,362.50000000,150.00000000,-2.50000000
1834,375.00000000,137.50000000,0.00000000
1835,362.50000000,150.00000000,0.00000000
1836,375.00000000,150.00000000,-1.25000000
1837,400.00000000,150.00000000,-2.50000000
1838,400.00000000,150.00000000,0.00000000
1839,400.00000000,137.50000000,-2.50000000
1840,387.50000000,150.00000000,-2.50000000
1841,400.00000000,137.50000000,0.00000000
1842,387.50000000,150.00000000,0.00000000
1843,400.00000000,150.00000000,-1.25000000
1844,25.00000000,175.00000000,-2.50000000
1845,0.00000000,175.00000000,-2.50000000
1846,25.00000000,175.00000000,0.00000000
1847,0.00000000,175.00000000,0.00000000
1848,25.00000000,162.50000000,-2.50000000
1849,12.50000000,175.00000000,-2.50000000
1850,0.00000000,162.50000000,-2.50000000
1851,25.00000000,162.50000000,0.00000000
1852,12.50000000,175.00000000,0.00000000
1853,0.00000000,162.50000000,0.00000000
1854,25.00000000,175.00000000,-1.25000000
1855,0.00000000,175.00000000,-1.25000000
1856,50.00000000,175.00000000,-2.50000000
1857,50.00000000,175.00000000,0.00000000
1858,50.00000000,162.50000000,-2.50000000
1859,37.50000000,175.00000000,-2.50000000
1860,50.00000000,162.50000000,0.00000000
1861,37.50000000,175.00000000,0.00000000
1862,50.00000000,175.00000000,-1.25000000
1863,75.00000000,175.00000000,-2.50000000
1864,75.00000000,175.00000000,0.00000000
1865,75.00000000,162.50000000,-2.50000000
1866,62.50000000,175.00000000,-2.50000000
1867,75.00000000,162.50000000,0.00000000
1868,62.50000000,175.00000000,0.00000000
1869,75.00000000,175.00000000,-1.25000000
1870,100.00000000,175.00000000,-2.50000000
1871,100.00000000,175.00000000,0.00000000
1872,100.00000000,162.50000000,-2.50000000
1873,87.50000000,175.00000000,-2.50000000
1874,100.00000000,162.50000000,0.00000000
1875,87.50000000,175.00000000,0.00000000
1876,100.00000000,175.00000000,-1.25000000
1877,125.00000000,175.00000000,-2.50000000
1878,125.00000000,175.00000000,0.00000000
1879,125.00000000,162.50000000,-2.50000000
1880,112.50000000,175.00000000,-2.50000000
1881,125.00000000,162.50000000,0.00000000
1882,112.50000000,175.00000000,0.00000000
1883,125.00000000,175.00000000,-1.25000000
1884,150.00000000,175.00000000,-2.50000000
1885,150.00000000,175.00000000,0.00000000
1886,150.00000000,162.50000000,-2.50000000
1887,137.50000000,175.00000000,-2.50000000
1888,150.00000000,162.50000000,0.00000000
1889,137.50000000,175.00000000,0.00000000
1890,150.00000000,175.00000000,-1.25000000
1891,175.00000000,175.00000000,-2.50000000
1892,175.00000000,175.00000000,0.00000000
1893,175.00000000,162.50000000,-2.50000000
1894,162.50000000,175.00000000,-2.50000000
1895,175.00000000,162.50000000,0.00000000
1896,162.50000000,175.00000000,0.00000000
1897,175.00000000,175.00000000,-1.25000000
1898,190.00000000,175.00000000,-2.50000000
1899,190.00000000,175.00000000,0.00000000
1900,190.00000000,162.50000000,-2.50000000
1901,182.50000000,175.00000000,-2.50000000
1902,190.00000000,162.50000000,0.00000000
1903,182.50000000,175.00000000,0.00000000
1904,190.00000000,175.00000000,-1.25000000
1905,200.00000000,175.00000000,-2.50000000
1906,200.00000000,175.00000000,0.00000000
1907,200.00000000,162.50000000,-2.50000000
1908,195.00000000,175.00000000,-2.50000000
1909,200.00000000,162.50000000,0.00000000
1910,195.00000000,175.00000000,0.00000000
1911,200.00000000,175.00000000,-1.25000000
1912,210.00000000,175.00000000,-2.50000000
1913,210.00000000,175.00000000,0.00000000
1914,210.00000000,162.50000000,-2.50000000
1915,205.00000000,175.00000000,-2.50000000
1916,210.00000000,162.50000000,0.00000000
1917,205.00000000,175.00000000,0.00000000
1918,210.00000000,175.00000000,-1.25000000
1919,225.00000000,175.00000000,-2.50000000
1920,225.00000000,175.00000000,0.00000000
1921,225.00000000,162.50000000,-2.50000000
1922,217.50000000,175.00000000,-2.50000000
1923,225.00000000,162.50000000,0.00000000
1924,217.50000000,175.00000000,0.00000000
1925,225.00000000,175.00000000,-1.25000000
1926,250.00000000,175.00000000,-2.50000000
1927,250.00000000,175.00000000,0.00000000
1928,250.00000000,162.50000000,-2.50000000
1929,237.50000000,175.00000000,-2.50000000
1930,250.00000000,162.50000000,0.00000000
1931,237.50000000,175.00000000,0.00000000
1932,250.00000000,175.00000000,-1.25000000
1933,275.00000000,175.00000000,-2.50000000
1934,275.00000000,175.00000000,0.00000000
1935,275.00000000,162.50000000,-2.50000000
1936,262.50000000,175.00000000,-2.50000000
1937,275.00000000,162.50000000,0.00000000
1938,262.50000000,175.00000000,0.00000000
1939,275.00000000,175.00000000,-1.25000000
1940,290.00000000,175.00000000,-2.50000000
1941,290.00000000,175.00000000,0.00000000
1942,290.00000000,162.50000000,-2.50000000
1943,282.50000000,175.00000000,-2.50000000
1944,290.00000000,162.50000000,0.00000000
1945,282.50000000,175.00000000,0.00000000
1946,290.00000000,175.00000000,-1.25000000
1947,300.00000000,175.00000000,-2.50000000
1948,300.00000000,175.00000000,0.00000000
1949,300.00000000,162.50000000,-2.50000000
1950,295.00000000,175.00000000,-2.50000000
1951,300.00000000,162.50000000,0.00000000
1952,295.00000000,175.00000000,0.00000000
1953,300.00000000,175.00000000,-1.25000000
1954,310.00000000,175.00000000,-2.50000000
1955,310.00000000,175.00000000,0.00000000
1956,310.00000000,162.50000000,-2.50000000
1957,305.00000000,175.00000000,-2.50000000
1958,310.00000000,162.50000000,0.00000000
1959,305.00000000,175.00000000,0.00000000
1960,310.00000000,175.00000000,-1.25000000
1961,325.00000000,175.00000000,-2.50000000
1962,325.00000000,175.00000000,0.00000000
1963,325.00000000,162.50000000,-2.50000000
1964,317.50000000,175.00000000,-2.50000000
1965,325.00000000,162.50000000,0.00000000
1966,317.50000000,175.00000000,0.00000000
1967,325.00000000,175.00000000,-1.25000000
1968,350.00000000,175.00000000,-2.50000000
1969,350.00000000,175.00000000,0.00000000
1970,350.00000000,162.50000000,-2.50000000
1971,337.50000000,175.00000000,-2.50000000
1972,350.00000000,162.50000000,0.00000000
1973,337.50000000,175.00000000,0.00000000
1974,350.00000000,175.00000000,-1.25000000
1975,375.00000000,175.00000000,-2.50000000
1976,375.00000000,175.00000000,0.00000000
1977,375.00000000,162.50000000,-2.50000000
1978,362.50000000,175.00000000,-2.50000000
1979,375.00000000,162.50000000,0.00000000
1980,362.50000000,175.00000000,0.00000000
1981,375.00000000,175.00000000,-1.25000000
1982,400.00000000,175.00000000,-2.50000000
1983,400.00000000,175.00000000,0.00000000
1984,400.00000000,162.50000000,-2.50000000
1985,387.50000000,175.00000000,-2.50000000
1986,400.00000000,162.50000000,0.00000000
1987,387.50000000,175.00000000,0.00000000
1988,400.00000000,175.00000000,-1.25000000
1989,25.00000000,200.00000000,-2.50000000
1990,0.00000000,200.00000000,-2.50000000
1991,25.00000000,200.00000000,0.00000000
1992,0.00000000,200.00000000,0.00000000
1993,25.00000000,187.50000000,-2.50000000
1994,12.50000000,200.00000000,-2.50000000
1995,0.00000000,187.50000000,-2.50000000
1996,25.00000000,187.50000000,0.00000000
1997,12.50000000,200.00000000,0.00000000
1998,0.00000000,187.50000000,0.00000000
1999,25.00000000,200.00000000,-1.25000000
2000,0.00000000,200.00000000,-1.25000000
2001,50.00000000,200.00000000,-2.50000000
2002,50.00000000,200.00000000,0.00000000
2003,50.00000000,187.50000000,-2.50000000
2004,37.50000000,200.00000000,-2.50000000
2005,50.00000000,187.50000000,0.00000000
2006,37.50000000,200.00000000,0.00000000
2007,50.00000000,200.00000000,-1.25000000
2008,75.00000000,200.00000000,-2.50000000
2009,75.00000000,200.00000000,0.00000000
2010,75.00000000,187.50000000,-2.50000000
2011,62.50000000,200.00000000,-2.50000000
2012,75.00000000,187.50000000,0.00000000
2013,62.50000000,200.00000000,0.00000000
2014,75.00000000,200.00000000,-1.25000000
2015,100.00000000,200.00000000,-2.50000000
2016,100.00000000,200.00000000,0.00000000
2017,100.00000000,187.50000000,-2.50000000
2018,87.50000000,200.00000000,-2.50000000
2019,100.00000000,187.50000000,0.00000000
2020,87.50000000,200.00000000,0.00000000
2021,100.00000000,200.00000000,-1.25000000
2022,125.00000000,200.00000000,-2.50000000
2023,125.00000000,200.00000000,0.00000000
2024,125.00000000,187.50000000,-2.50000000
2025,112.50000000,200.00000000,-2.50000000
2026,125.00000000,187.50000000,0.00000000
2027,112.50000000,200.00000000,0.00000000
2028,125.00000000,200.00000000,-1.25000000
2029,150.00000000,200.00000000,-2.50000000
2030,150.00000000,200.00000000,0.00000000
2031,150.00000000,187.50000000,-2.50000000
2032,137.50000000,200.00000000,-2.50000000
2033,150.00000000,187.50000000,0.00000000
2034,137.50000000,200.00000000,0.00000000
2035,150.00000000,200.00000000,-1.25000000
2036,175.00000000,200.00000000,-2.50000000
2037,175.00000000,200.00000000,0.00000000
2038,175.00000000,187.50000000,-2.50000000
2039,162.50000000,200.00000000,-2.50000000
2040,175.00000000,187.50000000,0.00000000
2041,162.50000000,200.00000000,0.00000000
2042,175.00000000,200.00000000,-1.25000000
2043,190.00000000,200.00000000,-2.50000000
2044,190.00000000,200.00000000,0.00000000
2045,190.00000000,187.50000000,-2.50000000
2046,182.50000000,200.00000000,-2.50000000
2047,190.00000000,187.50000000,0.00000000
2048,182.50000000,200.00000000,0.00000000
2049,190.00000000,200.00000000,-1.25000000
2050,200.00000000,200.00000000,-2.50000000
2051,200.00000000,200.00000000,0.00000000
2052,200.00000000,187.50000000,-2.50000000
2053,195.00000000,200.00000000,-2.50000000
2054,200.00000000,187.50000000,0.00000000
2055,195.00000000,200.00000000,0.00000000
2056,200.00000000,200.00000000,-1.25000000
2057,210.00000000,200.00000000,-2.50000000
2058,210.00000000,200.00000000,0.00000000
2059,210.00000000,187.50000000,-2.50000000
2060,205.00000000,200.00000000,-2.50000000
2061,210.00000000,187.50000000,0.00000000
2062,205.00000000,200.00000000,0.00000000
2063,210.00000000,200.00000000,-1.25000000
2064,225.00000000,200.00000000,-2.50000000
2065,225.00000000,200.00000000,0.00000000
2066,225.00000000,187.50000000,-2.50000000
2067,217.50000000,200.00000000,-2.50000000
2068,225.00000000,187.50000000,0.00000000
2069,217.50000000,200.00000000,0.00000000
2070,225.00000000,200.00000000,-1.25000000
2071,250.00000000,200.00000000,-2.50000000
2072,250.00000000,200.00000000,0.00000000
2073,250.00000000,187.50000000,-2.50000000
2074,237.50000000,200.00000000,-2.50000000
2075,250.00000000,187.50000000,0.00000000
2076,237.50000000,200.00000000,0.00000000
2077,250.00000000,200.00000000,-1.25000000
2078,275.00000000,200.00000000,-2.50000000
2079,275.00000000,200.00000000,0.00000000
2080,275.00000000,187.50000000,-2.50000000
2081,262.50000000,200.00000000,-2.50000000
2082,275.00000000,187.50000000,0.00000000
2083,262.50000000,200.00000000,0.00000000
2084,275.00000000,200.00000000,-1.25000000
2085,290.00000000,200.00000000,-2.50000000
2086,290.00000000,200.00000000,0.00000000
2087,290.00000000,187.50000000,-2.50000000
2088,282.50000000,200.00000000,-2.50000000
2089,290.00000000,187.50000000,0.00000000
2090,282.50000000,200.00000000,0.00000000
2091,290.00000000,200.00000000,-1.25000000
2092,300.00000000,200.00000000,-2.50000000
2093,300.00000000,200.00000000,0.00000000
2094,300.00000000,187.50000000,-2.50000000
2095,295.00000000,200.00000000,-2.50000000
2096,300.00000000,187.50000000,0.00000000
2097,295.00000000,200.00000000,0.00000000
2098,300.00000000,200.00000000,-1.25000000
2099,310.00000000,200.00000000,-2.50000000
2100,310.00000000,200.00000000,0.00000000
2101,310.00000000,187.50000000,-2.50000000
2102,305.00000000,200.00000000,-2.50000000
2103,310.00000000,187.50000000,0.00000000
2104,305.00000000,200.00000000,0.00000000
2105,310.00000000,200.00000000,-1.25000000
2106,325.00000000,200.00000000,-2.50000000
2107,325.00000000,200.00000000,0.00000000
2108,325.00000000,187.50000000,-2.50000000
2109,317.50000000,200.00000000,-2.50000000
2110,325.00000000,187.50000000,0.00000000
2111,317.50000000,200.00000000,0.00000000
2112,325.00000000,200.00000000,-1.25000000
2113,350.00000000,200.00000000,-2.50000000
2114,350.00000000,200.00000000,0.00000000
2115,350.00000000,187.50000000,-2.50000000
2116,337.50000000,200.00000000,-2.50000000
2117,350.00000000,187.50000000,0.00000000
2118,337.50000000,200.00000000,0.00000000
2119,350.00000000,200.00000000,-1.25000000
2120,375.00000000,200.00000000,-2.50000000
2121,375.00000000,200.00000000,0.00000000
2122,375.00000000,187.50000000,-2.50000000
2123,362.50000000,200.00000000,-2.50000000
2124,375.00000000,187.50000000,0.00000000
2125,362.50000000,200.00000000,0.00000000
2126,375.00000000,200.00000000,-1.25000000
2127,400.00000000,200.00000000,-2.50000000
2128,400.00000000,200.00000000,0.00000000
2129,400.00000000,187.50000000,-2.50000000
2130,387.50000000,200.00000000,-2.50000000
2131,400.00000000,187.50000000,0.00000000
2132,387.50000000,200.00000000,0.00000000
2133,400.00000000,200.00000000,-1.25000000
2134,25.00000000,225.00000000,-2.50000000
2135,0.00000000,225.00000000,-2.50000000
2136,25.00000000,225.00000000,0.00000000
2137,0.00000000,225.00000000,0.00000000
2138,25.00000000,212.50000000,-2.50000000
2139,12.50000000,225.00000000,-2.50000000
2140,0.00000000,212.50000000,-2.50000000
2141,25.00000000,212.50000000,0.00000000
2142,12.50000000,225.00000000,0.00000000
2143,0.00000000,212.50000000,0.00000000
2144,25.00000000,225.00000000,-1.25000000
2145,0.00000000,225.00000000,-1.25000000
2146,50.00000000,225.00000000,-2.50000000
2147,50.00000000,225.00000000,0.00000000
2148,50.00000000,212.50000000,-2.50000000
2149,37.50000000,225.00000000,-2.50000000
2150,50.00000000,212.50000000,0.00000000
2151,37.50000000,225.00000000,0.00000000
2152,50.00000000,225.00000000,-1.25000000
2153,75.00000000,225.00000000,-2.50000000
2154,75.00000000,225.00000000,0.00000000
2155,75.00000000,212.50000000,-2.50000000
2156,62.50000000,225.00000000,-2.50000000
2157,75.00000000,212.50000000,0.00000000
2158,62.50000000,225.00000000,0.00000000
2159,75.00000000,225.00000000,-1.25000000
2160,100.00000000,225.00000000,-2.50000000
2161,100.00000000,225.00000000,0.00000000
2162,100.00000000,212.50000000,-2.50000000
2163,87.50000000,225.00000000,-2.50000000
2164,100.00000000,212.50000000,0.00000000
2165,87.50000000,225.00000000,0.00000000
2166,100.00000000,225.00000000,-1.25000000
2167,125.00000000,225.00000000,-2.50000000
2168,125.00000000,225.00000000,0.00000000
2169,125.00000000,212.50000000,-2.50000000
2170,112.50000000,225.00000000,-2.50000000
2171,125.00000000,212.50000000,0.00000000
2172,112.50000000,225.00000000,0.00000000
2173,125.00000000,225.00000000,-1.25000000
2174,150.00000000,225.00000000,-2.50000000
2175,150.00000000,225.00000000,0.00000000
2176,150.00000000,212.50000000,-2.50000000
2177,137.50000000,225.00000000,-2.50000000
2178,150.00000000,212.50000000,0.00000000
2179,137.50000000,225.00000000,0.00000000
2180,150.00000000,225.00000000,-1.25000000
2181,175.00000000,225.00000000,-2.50000000
2182,175.00000000,225.00000000,0.00000000
2183,175.00000000,212.50000000,-2.50000000
2184,162.50000000,225.00000000,-2.50000000
2185,175.00000000,212.50000000,0.00000000
2186,162.50000000,225.00000000,0.00000000
2187,175.00000000,225.00000000,-1.25000000
2188,190.00000000,225.00000000,-2.50000000
2189,190.00000000,225.00000000,0.00000000
2190,190.00000000,212.50000000,-2.50000000
2191,182.50000000,225.00000000,-2.50000000
2192,190.00000000,212.50000000,0.00000000
2193,182.50000000,225.00000000,0.00000000
2194,190.00000000,225.00000000,-1.25000000
2195,200.00000000,225.00000000,-2.50000000
2196,200.00000000,225.00000000,0.00000000
2197,200.00000000,212.50000000,-2.50000000
2198,195.00000000,225.00000000,-2.50000000
2199,200.00000000,212.50000000,0.00000000
2200,195.00000000,225.00000000,0.00000000
2201,200.00000000,225.00000000,-1.25000000
2202,210.00000000,225.00000000,-2.50000000
2203,210.00000000,225.00000000,0.00000000
2204,210.00000000,212.50000000,-2.50000000
2205,205.00000000,225.00000000,-2.50000000
2206,210.00000000,212.50000000,0.00000000
2207,205.00000000,225.00000000,0.00000000
2208,210.00000000,225.00000000,-1.25000000
2209,225.00000000,225.00000000,-2.50000000
2210,225.00000000,225.00000000,0.00000000
2211,225.00000000,212.50000000,-2.50000000
2212,217.50000000,225.00000000,-2.50000000
2213,225.00000000,212.50000000,0.00000000
2214,217.50000000,225.00000000,0.00000000
2215,225.00000000,225.00000000,-1.25000000
2216,250.00000000,225.00000000,-2.50000000
2217,250.00000000,225.00000000,0.00000000
2218,250.00000000,212.50000000,-2.50000000
2219,237.50000000,225.00000000,-2.50000000
2220,250.00000000,212.50000000,0.00000000
2221,237.50000000,225.00000000,0.00000000
2222,250.00000000,225.00000000,-1.25000000
2223,275.00000000,225.00000000,-2.50000000
2224,275.00000000,225.00000000,0.00000000
2225,275.00000000,212.50000000,-2.50000000
2226,262.50000000,225.00000000,-2.50000000
2227,275.00000000,212.50000000,0.00000000
2228,262.50000000,225.00000000,0.00000000
2229,275.00000000,225.00000000,-1.25000000
2230,290.00000000,225.00000000,-2.50000000
2231,290.00000000,225.00000000,0.00000000
2232,290.00000000,212.50000000,-2.50000000
2233,282.50000000,225.00000000,-2.50000000
2234,290.00000000,212.50000000,0.00000000
2235,282.50000000,225.00000000,0.00000000
2236,290.00000000,225.00000000,-1.25000000
2237,300.00000000,225.00000000,-2.50000000
2238,300.00000000,225.00000000,0.00000000
2239,300.00000000,212.50000000,-2.50000000
2240,295.00000000,225.00000000,-2.50000000
2241,300.00000000,212.50000000,0.00000000
2242,295.00000000,225.00000000,0.00000000
2243,300.00000000,225.00000000,-1.25000000
2244,310.00000000,225.00000000,-2.50000000
2245,310.00000000,225.00000000,0.00000000
2246,310.00000000,212.50000000,-2.50000000
2247,305.00000000,225.00000000,-2.50000000
2248,310.00000000,212.50000000,0.00000000
2249,305.00000000,225.00000000,0.00000000
2250,310.00000000,225.00000000,-1.25000000
2251,325.00000000,225.00000000,-2.50000000
2252,325.00000000,225.00000000,0.00000000
2253,325.00000000,212.50000000,-2.50000000
2254,317.50000000,225.00000000,-2.50000000
2255,325.00000000,212.50000000,0.00000000
2256,317.50000000,225.00000000,0.00000000
2257,325.00000000,225.00000000,-1.25000000
2258,350.00000000,225.00000000,-2.50000000
2259,350.00000000,225.00000000,0.00000000
2260,350.00000000,212.50000000,-2.50000000
2261,337.50000000,225.00000000,-2.50000000
2262,350.00000000,212.50000000,0.00000000
2263,337.50000000,225.00000000,0.00000000
2264,350.00000000,225.00000000,-1.25000000
2265,375.00000000,225.00000000,-2.50000000
2266,375.00000000,225.00000000,0.00000000
2267,375.00000000,212.50000000,-2.50000000
2268,362.50000000,225.00000000,-2.50000000
2269,375.00000000,212.50000000,0.00000000
2270,362.50000000,225.00000000,0.00000000
2271,375.00000000,225.00000000,-1.25000000
2272,400.00000000,225.00000000,-2.50000000
2273,400.00000000,225.00000000,0.00000000
2274,400.00000000,212.50000000,-2.50000000
2275,387.50000000,225.00000000,-2.50000000
2276,400.00000000,212.50000000,0.00000000
2277,387.50000000,225.00000000,0.00000000
2278,400.00000000,225.00000000,-1.25000000
2279,25.00000000,250.00000000,-2.50000000
2280,0.00000000,250.00000000,-2.50000000
2281,25.00000000,250.00000000,0.00000000
2282,0.00000000,250.00000000,0.00000000
2283,25.00000000,237.50000000,-2.50000000
2284,12.50000000,250.00000000,-2.50000000
2285,0.00000000,237.50000000,-2.50000000
2286,25.00000000,237.50000000,0.00000000
2287,12.50000000,250.00000000,0.00000000
2288,0.00000000,237.50000000,0.00000000
2289,25.00000000,250.00000000,-1.25000000
2290,0.00000000,250.00000000,-1.25000000
2291,50.00000000,250.00000000,-2.50000000
2292,50.00000000,250.00000000,0.00000000
2293,50.00000000,237.50000000,-2.50000000
2294,37.50000000,250.00000000,-2.50000000
2295,50.00000000,237.50000000,0.00000000
2296,37.50000000,250.00000000,0.00000000
2297,50.00000000,250.00000000,-1.25000000
2298,75.00000000,250.00000000,-2.50000000
2299,75.00000000,250.00000000,0.00000000
2300,75.00000000,237.50000000,-2.50000000
2301,62.50000000,250.00000000,-2.50000000
2302,75.00000000,237.50000000,0.00000000
2303,62.50000000,250.00000000,0.00000000
2304,75.00000000,250.00000000,-1.25000000
2305,100.00000000,250.00000000,-2.50000000
2306,100.00000000,250.00000000,0.00000000
2307,100.00000000,237.50000000,-2.50000000
2308,87.50000000,250.00000000,-2.50000000
2309,100.00000000,237.50000000,0.00000000
2310,87.50000000,250.00000000,0.00000000
2311,100.00000000,250.00000000,-1.25000000
2312,125.00000000,250.00000000,-2.50000000
2313,125.00000000,250.00000000,0.00000000
2314,125.00000000,237.50000000,-2.50000000
2315,112.50000000,250.00000000,-2.50000000
2316,125.00000000,237.50000000,0.00000000
2317,112.50000000,250.00000000,0.00000000
2318,125.00000000,250.00000000,-1.25000000
2319,150.00000000,250.00000000,-2.50000000
2320,150.00000000,250.00000000,0.00000000
2321,150.00000000,237.50000000,-2.50000000
2322,137.50000000,250.00000000,-2.50000000
2323,150.00000000,237.50000000,0.00000000
2324,137.50000000,250.00000000,0.00000000
2325,150.00000000,250.00000000,-1.25000000
2326,175.00000000,250.00000000,-2.50000000
2327,175.00000000,250.00000000,0.00000000
2328,175.00000000,237.50000000,-2.50000000
2329,162.50000000,250.00000000,-2.50000000
2330,175.00000000,237.50000000,0.00000000
2331,162.50000000,250.00000000,0.00000000
2332,175.00000000,250.00000000,-1.25000000
2333,190.00000000,250.00000000,-2.50000000
2334,190.00000000,250.00000000,0.00000000
2335,190.00000000,237.50000000,-2.50000000
2336,182.50000000,250.00000000,-2.50000000
2337,190.00000000,237.50000000,0.00000000
2338,182.50000000,250.00000000,0.00000000
2339,190.00000000,250.00000000,-1.25000000
2340,200.00000000,250.00000000,-2.50000000
2341,200.00000000,250.00000000,0.00000000
2342,200.00000000,237.50000000,-2.50000000
2343,195.00000000,250.00000000,-2.50000000
2344,200.00000000,237.50000000,0.00000000
2345,195.00000000,250.00000000,0.00000000
2346,200.00000000,250.00000000,-1.25000000
2347,210.00000000,250.00000000,-2.50000000
2348,210.00000000,250.00000000,0.00000000
2349,210.00000000,237.50000000,-2.50000000
2350,205.00000000,250.00000000,-2.50000000
2351,210.00000000,237.50000000,0.00000000
2352,205.00000000,250.00000000,0.00000000
2353,210.00000000,250.00000000,-1.25000000
2354,225.00000000,250.00000000,-2.50000000
2355,225.00000000,250.00000000,0.00000000
2356,225.00000000,237.50000000,-2.50000000
2357,217.50000000,250.00000000,-2.50000000
2358,225.00000000,237.50000000,0.00000000
2359,217.50000000,250.00000000,0.00000000
2360,225.00000000,250.00000000,-1.25000000
2361,250.00000000,250.00000000,-2.50000000
2362,250.00000000,250.00000000,0.00000000
2363,250.00000000,237.50000000,-2.50000000
2364,237.50000000,250.00000000,-2.50000000
2365,250.00000000,237.50000000,0.00000000
2366,237.50000000,250.00000000,0.00000000
2367,250.00000000,250.00000000,-1.25000000
2368,275.00000000,250.00000000,-2.50000000
2369,275.00000000,250.00000000,0.00000000
2370,275.00000000,237.50000000,-2.50000000
2371,262.50000000,250.00000000,-2.50000000
2372,275.00000000,237.50000000,0.00000000
2373,262.50000000,250.00000000,0.00000000
2374,275.00000000,250.00000000,-1.25000000
2375,290.00000000,250.00000000,-2.50000000
2376,290.00000000,250.00000000,0.00000000
2377,290.00000000,237.50000000,-2.50000000
2378,282.50000000,250.00000000,-2.50000000
2379,290.00000000,237.50000000,0.00000000
2380,282.50000000,250.00000000,0.00000000
2381,290.00000000,250.00000000,-1.25000000
2382,300.00000000,250.00000000,-2.50000000
2383,300.00000000,250.00000000,0.00000000
2384,300.00000000,237.50000000,-2.50000000
2385,295.00000000,250.00000000,-2.50000000
2386,300.00000000,237.50000000,0.00000000
2387,295.00000000,250.00000000,0.00000000
2388,300.00000000,250.00000000,-1.25000000
2389,310.00000000,250.00000000,-2.50000000
2390,310.00000000,250.00000000,0.00000000
2391,310.00000000,237.50000000,-2.50000000
2392,305.00000000,250.00000000,-2.50000000
2393,310.00000000,237.50000000,0.00000000
2394,305.00000000,250.00000000,0.00000000
2395,310.00000000,250.00000000,-1.25000000
2396,325.00000000,250.00000000,-2.50000000
2397,325.00000000,250.00000000,0.00000000
2398,325.00000000,237.50000000,-2.50000000
2399,317.50000000,250.00000000,-2.50000000
2400,325.00000000,237.50000000,0.00000000
2401,317.50000000,250.00000000,0.00000000
2402,325.00000000,250.00000000,-1.25000000
2403,350.00000000,250.00000000,-2.50000000
2404,350.00000000,250.00000000,0.00000000
2405,350.00000000,237.50000000,-2.50000000
2406,337.50000000,250.00000000,-2.50000000
2407,350.00000000,237.50000000,0.00000000
2408,337.50000000,250.00000000,0.00000000
2409,350.00000000,250.00000000,-1.25000000
2410,375.00000000,250.00000000,-2.50000000
2411,375.00000000,250.00000000,0.00000000
2412,375.00000000,237.50000000,-2.50000000
2413,362.50000000,250.00000000,-2.50000000
2414,375.00000000,237.50000000,0.00000000
2415,362.50000000,250.00000000,0.00000000
2416,375.00000000,250.00000000,-1.25000000
2417,400.00000000,250.00000000,-2.50000000
2418,400.00000000,250.00000000,0.00000000
2419,400.00000000,237.50000000,-2.50000000
2420,387.50000000,250.00000000,-2.50000000
2421,400.00000000,237.50000000,0.00000000
2422,387.50000000,250.00000000,0.00000000
2423,400.00000000,250.00000000,-1.25000000
2424,25.00000000,275.00000000,-2.50000000
2425,0.00000000,275.00000000,-2.50000000
2426,25.00000000,275.00000000,0.00000000
2427,0.00000000,275.00000000,0.00000000
2428,25.00000000,262.50000000,-2.50000000
2429,12.50000000,275.00000000,-2.50000000
2430,0.00000000,262.50000000,-2.50000000
2431,25.00000000,262.50000000,0.00000000
2432,12.50000000,275.00000000,0.00000000
2433,0.00000000,262.50000000,0.00000000
2434,25.00000000,275.00000000,-1.25000000
2435,0.00000000,275.00000000,-1.25000000
2436,50.00000000,275.00000000,-2.50000000
2437,50.00000000,275.00000000,0.00000000
2438,50.00000000,262.50000000,-2.50000000
2439,37.50000000,275.00000000,-2.50000000
2440,50.00000000,262.50000000,0.00000000
2441,37.50000000,275.00000000,0.00000000
2442,50.00000000,275.00000000,-1.25000000
2443,75.00000000,275.00000000,-2.50000000
2444,75.00000000,275.00000000,0.00000000
2445,75.00000000,262.50000000,-2.50000000
2446,62.50000000,275.00000000,-2.50000000
2447,75.00000000,262.50000000,0.00000000
2448,62.50000000,275.00000000,0.00000000
2449,75.00000000,275.00000000,-1.25000000
2450,100.00000000,275.00000000,-2.50000000
2451,100.00000000,275.00000000,0.00000000
2452,100.00000000,262.50000000,-2.50000000
2453,87.50000000,275.00000000,-2.50000000
2454,100.00000000,262.50000000,0.00000000
2455,87.50000000,275.00000000,0.00000000
2456,100.00000000,275.00000000,-1.25000000
2457,125.00000000,275.00000000,-2.50000000
2458,125.00000000,275.00000000,0.00000000
2459,125.00000000,262.50000000,-2.50000000
2460,112.50000000,275.00000000,-2.50000000
2461,125.00000000,262.50000000,0.00000000
2462,112.50000000,275.00000000,0.00000000
2463,125.00000000,275.00000000,-1.25000000
2464,150.00000000,275.00000000,-2.50000000
2465,150.00000000,275.00000000,0.00000000
2466,150.00000000,262.50000000,-2.50000000
2467,137.50000000,275.00000000,-2.50000000
2468,150.00000000,262.50000000,0.00000000
2469,137.50000000,275.00000000,0.00000000
2470,150.00000000,275.00000000,-1.25000000
2471,175.00000000,275.00000000,-2.50000000
2472,175.00000000,275.00000000,0.00000000
2473,175.00000000,262.50000000,-2.50000000
2474,162.50000000,275.00000000,-2.50000000
2475,175.00000000,262.50000000,0.00000000
2476,162.50000000,275.00000000,0.00000000
2477,175.00000000,275.00000000,-1.25000000
2478,190.00000000,275.00000000,-2.50000000
2479,190.00000000,275.00000000,0.00000000
2480,190.00000000,262.50000000,-2.50000000
2481,182.50000000,275.00000000,-2.50000000
2482,190.00000000,262.50000000,0.00000000
2483,182.50000000,275.00000000,0.00000000
2484,190.00000000,275.00000000,-1.25000000
2485,200.00000000,275.00000000,-2.50000000
2486,200.00000000,275.00000000,0.00000000
2487,200.00000000,262.50000000,-2.50000000
2488,195.00000000,275.00000000,-2.50000000
2489,200.00000000,262.50000000,0.00000000
2490,195.00000000,275.00000000,0.00000000
2491,200.00000000,275.00000000,-1.25000000
2492,210.00000000,275.00000000,-2.50000000
2493,210.00000000,275.00000000,0.00000000
2494,210.00000000,262.50000000,-2.50000000
2495,205.00000000,275.00000000,-2.50000000
2496,210.00000000,262.50000000,0.00000000
2497,205.00000000,275.00000000,0.00000000
2498,210.00000000,275.00000000,-1.25000000
2499,225.00000000,275.00000000,-2.50000000
2500,225.00000000,275.00000000,0.00000000
2501,225.00000000,262.50000000,-2.50000000
2502,217.50000000,275.00000000,-2.50000000
2503,225.00000000,262.50000000,0.00000000
2504,217.50000000,275.00000000,0.00000000
2505,225.00000000,275.00000000,-1.25000000
2506,250.00000000,275.00000000,-2.50000000
2507,250.00000000,275.00000000,0.00000000
2508,250.00000000,262.50000000,-2.50000000
2509,237.50000000,275.00000000,-2.50000000
2510,250.00000000,262.50000000,0.00000000
2511,237.50000000,275.00000000,0.00000000
2512,250.00000000,275.00000000,-1.25000000
2513,275.00000000,275.00000000,-2.50000000
2514,275.00000000,275.00000000,0.00000000
2515,275.00000000,262.50000000,-2.50000000
2516,262.50000000,275.00000000,-2.50000000
2517,275.00000000,262.50000000,0.00000000
2518,262.50000000,275.00000000,0.00000000
2519,275.00000000,275.00000000,-1.25000000
2520,290.00000000,275.00000000,-2.50000000
2521,290.00000000,275.00000000,0.00000000
2522,290.00000000,262.50000000,-2.50000000
2523,282.50000000,275.00000000,-2.50000000
2524,290.00000000,262.50000000,0.00000000
2525,282.50000000,275.00000000,0.00000000
2526,290.00000000,275.00000000,-1.25000000
2527,300.00000000,275.00000000,-2.50000000
2528,300.00000000,275.00000000,0.00000000
2529,300.00000000,262.50000000,-2.50000000
2530,295.00000000,275.00000000,-2.50000000
2531,300.00000000,262.50000000,0.00000000
2532,295.00000000,275.00000000,0.00000000
2533,300.00000000,275.00000000,-1.25000000
2534,310.00000000,275.00000000,-2.50000000
2535,310.00000000,275.00000000,0.00000000
2536,310.00000000,262.50000000,-2.50000000
2537,305.00000000,275.00000000,-2.50000000
2538,310.00000000,262.50000000,0.00000000
2539,305.00000000,275.00000000,0.00000000
2540,310.00000000,275.00000000,-1.25000000
2541,325.00000000,275.00000000,-2.50000000
2542,325.00000000,275.00000000,0.00000000
2543,325.00000000,262.50000000,-2.50000000
2544,317.50000000,275.00000000,-2.50000000
2545,325.00000000,262.50000000,0.00000000
2546,317.50000000,275.00000000,0.00000000
2547,325.00000000,275.00000000,-1.25000000
2548,350.00000000,275.00000000,-2.50000000
2549,350.00000000,275.00000000,0.00000000
2550,350.00000000,262.50000000,-2.50000000
2551,337.50000000,275.00000000,-2.50000000
2552,350.00000000,262.50000000,0.00000000
2553,337.50000000,275.00000000,0.00000000
2554,350.00000000,275.00000000,-1.25000000
2555,375.00000000,275.00000000,-2.50000000
2556,375.00000000,275.00000000,0.00000000
2557,375.00000000,262.50000000,-2.50000000
2558,362.50000000,275.00000000,-2.50000000
2559,375.00000000,262.50000000,0.00000000
2560,362.50000000,275.00000000,0.00000000
2561,375.00000000,275.00000000,-1.25000000
2562,400.00000000,275.00000000,-2.50000000
2563,400.00000000,275.00000000,0.00000000
2564,400.00000000,262.50000000,-2.50000000
2565,387.50000000,275.00000000,-2.50000000
2566,400.00000000,262.50000000,0.00000000
2567,387.50000000,275.00000000,0.00000000
2568,400.00000000,275.00000000,-1.25000000
2569,25.00000000,300.00000000,-2.50000000
2570,0.00000000,300.00000000,-2.50000000
2571,25.00000000,300.00000000,0.00000000
2572,0.00000000,300.00000000,0.00000000
2573,25.00000000,287.50000000,-2.50000000
2574,12.50000000,300.00000000,-2.50000000
2575,0.00000000,287.50000000,-2.50000000
2576,25.00000000,287.50000000,0.00000000
2577,12.50000000,300.00000000,0.00000000
2578,0.00000000,287.50000000,0.00000000
2579,25.00000000,300.00000000,-1.25000000
2580,0.00000000,300.00000000,-1.25000000
2581,50.00000000,300.00000000,-2.50000000
2582,50.00000000,300.00000000,0.00000000
2583,50.00000000,287.50000000,-2.50000000
2584,37.50000000,300.00000000,-2.50000000
2585,50.00000000,287.50000000,0.00000000
2586,37.50000000,300.00000000,0.00000000
2587,50.00000000,300.00000000,-1.25000000
2588,75.00000000,300.00000000,-2.50000000
2589,75.00000000,300.00000000,0.00000000
2590,75.00000000,287.50000000,-2.50000000
2591,62.50000000,300.00000000,-2.50000000
2592,75.00000000,287.50000000,0.00000000
2593,62.50000000,300.00000000,0.00000000
2594,75.00000000,300.00000000,-1.25000000
2595,100.00000000,300.00000000,-2.50000000
2596,100.00000000,300.00000000,0.00000000
2597,100.00000000,287.50000000,-2.50000000
2598,87.50000000,300.00000000,-2.50000000
2599,100.00000000,287.50000000,0.00000000
2600,87.50000000,300.00000000,0.00000000
2601,100.00000000,300.00000000,-1.25000000
2602,125.00000000,300.00000000,-2.50000000
2603,125.00000000,300.00000000,0.00000000
2604,125.00000000,287.50000000,-2.50000000
2605,112.50000000,300.00000000,-2.50000000
2606,125.00000000,287.50000000,0.00000000
2607,112.50000000,300.00000000,0.00000000
2608,125.00000000,300.00000000,-1.25000000
2609,150.00000000,300.00000000,-2.50000000
2610,150.00000000,300.00000000,0.00000000
2611,150.00000000,287.50000000,-2.50000000
2612,137.50000000,300.00000000,-2.50000000
2613,150.00000000,287.50000000,0.00000000
2614,137.50000000,300.00000000,0.00000000
2615,150.00000000,300.00000000,-1.25000000
2616,175.00000000,300.00000000,-2.50000000
2617,175.00000000,300.00000000,0.00000000
2618,175.00000000,287.50000000,-2.50000000
2619,162.50000000,300.00000000,-2.50000000
2620,175.00000000,287.50000000,0.00000000
2621,162.50000000,300.00000000,0.00000000
2622,175.00000000,300.00000000,-1.25000000
2623,190.00000000,300.00000000,-2.50000000
2624,190.00000000,300.00000000,0.00000000
2625,190.00000000,287.50000000,-2.50000000
2626,182.50000000,300.00000000,-2.50000000
2627,190.00000000,287.50000000,0.00000000
2628,182.50000000,300.00000000,0.00000000
2629,190.00000000,300.00000000,-1.25000000
2630,200.00000000,300.00000000,-2.50000000
2631,200.00000000,300.00000000,0.00000000
2632,200.00000000,287.50000000,-2.50000000
2633,195.00000000,300.00000000,-2.50000000
2634,200.00000000,287.50000000,0.00000000
2635,195.00000000,300.00000000,0.00000000
2636,200.00000000,300.00000000,-1.25000000
2637,210.00000000,300.00000000,-2.50000000
2638,210.00000000,300.00000000,0.00000000
2639,210.00000000,287.50000000,-2.50000000
2640,205.00000000,300.00000000,-2.50000000
2641,210.00000000,287.50000000,0.00000000
2642,205.00000000,300.00000000,0.00000000
2643,210.00000000,300.00000000,-1.25000000
2644,225.00000000,300.00000000,-2.50000000
2645,225.00000000,300.00000000,0.00000000
2646,225.00000000,287.50000000,-2.50000000
2647,217.50000000,300.00000000,-2.50000000
2648,225.00000000,287.50000000,0.00000000
2649,217.50000000,300.00000000,0.00000000
2650,225.00000000,300.00000000,-1.25000000
2651,250.00000000,300.00000000,-2.50000000
2652,250.00000000,300.00000000,0.00000000
2653,250.00000000,287.50000000,-2.50000000
2654,237.50000000,300.00000000,-2.50000000
2655,250.00000000,287.50000000,0.00000000
2656,237.50000000,300.00000000,0.00000000
2657,250.00000000,300.00000000,-1.25000000
2658,275.00000000,300.00000000,-2.50000000
2659,275.00000000,300.00000000,0.00000000
2660,275.00000000,287.50000000,-2.50000000
2661,262.50000000,300.00000000,-2.50000000
2662,275.00000000,287.50000000,0.00000000
2663,262.50000000,300.00000000,0.00000000
2664,275.00000000,300.00000000,-1.25000000
2665,290.00000000,300.00000000,-2.50000000
2666,290.00000000,300.00000000,0.00000000
2667,290.00000000,287.50000000,-2.50000000
2668,282.50000000,300.00000000,-2.50000000
2669,290.00000000,287.50000000,0.00000000
2670,282.50000000,300.00000000,0.00000000
2671,290.00000000,300.00000000,-1.25000000
2672,300.00000000,300.00000000,-2.50000000
2673,300.00000000,300.00000000,0.00000000
2674,300.00000000,287.50000000,-2.50000000
2675,295.00000000,300.00000000,-2.50000000
2676,300.00000000,287.50000000,0.00000000
2677,295.00000000,300.00000000,0.00000000
2678,300.00000000,300.00000000,-1.25000000
2679,310.00000000,300.00000000,-2.50000000
2680,310.00000000,300.00000000,0.00000000
2681,310.00000000,287.50000000,-2.50000000
2682,305.00000000,300.00000000,-2.50000000
2683,310.00000000,287.50000000,0.00000000
2684,305.00000000,300.00000000,0.00000000
2685,310.00000000,300.00000000,-1.25000000
2686,325.00000000,300.00000000,-2.50000000
2687,325.00000000,300.00000000,0.00000000
2688,325.00000000,287.50000000,-2.50000000
2689,317.50000000,300.00000000,-2.50000000
2690,325.00000000,287.50000000,0.00000000
2691,317.50000000,300.00000000,0.00000000
2692,325.00000000,300.00000000,-1.25000000
2693,350.00000000,300.00000000,-2.50000000
2694,350.00000000,300.00000000,0.00000000
2695,350.00000000,287.50000000,-2.50000000
2696,337.50000000,300.00000000,-2.50000000
2697,350.00000000,287.50000000,0.00000000
2698,337.50000000,300.00000000,0.00000000
2699,350.00000000,300.00000000,-1.25000000
2700,375.00000000,300.00000000,-2.50000000
2701,375.00000000,300.00000000,0.00000000
2702,375.00000000,287.50000000,-2.50000000
2703,362.50000000,300.00000000,-2.50000000
2704,375.00000000,287.50000000,0.00000000
2705,362.50000000,300.00000000,0.00000000
2706,375.00000000,300.00000000,-1.25000000
2707,400.00000000,300.00000000,-2.50000000
2708,400.00000000,300.00000000,0.00000000
2709,400.00000000,287.50000000,-2.50000000
2710,387.50000000,300.00000000,-2.50000000
2711,400.00000000,287.50000000,0.00000000
2712,387.50000000,300.00000000,0.00000000
2713,400.00000000,300.00000000,-1.25000000
2714,0.00000000,0.00000000,2.50000000
2715,25.00000000,0.00000000,2.50000000
2716,25.00000000,5.00000000,2.50000000
2717,0.00000000,5.00000000,2.50000000
2718,12.50000000,0.00000000,2.50000000
2719,25.00000000,2.50000000,2.50000000
2720,12.50000000,5.00000000,2.50000000
2721,0.00000000,2.50000000,2.50000000
2722,0.00000000,0.00000000,1.25000000
2723,25.00000000,0.00000000,1.25000000
2724,25.00000000,5.00000000,1.25000000
2725,0.00000000,5.00000000,1.25000000
2726,50.00000000,0.00000000,2.50000000
2727,50.00000000,5.00000000,2.50000000
2728,37.50000000,0.00000000,2.50000000
2729,50.00000000,2.50000000,2.50000000
2730,37.50000000,5.00000000,2.50000000
2731,50.00000000,0.00000000,1.25000000
2732,50.00000000,5.00000000,1.25000000
2733,75.00000000,0.00000000,2.50000000
2734,75.00000000,5.00000000,2.50000000
2735,62.50000000,0.00000000,2.50000000
2736,75.00000000,2.50000000,2.50000000
2737,62.50000000,5.00000000,2.50000000
2738,75.00000000,0.00000000,1.25000000
2739,75.00000000,5.00000000,1.25000000
2740,100.00000000,0.00000000,2.50000000
2741,100.00000000,5.00000000,2.50000000
2742,87.50000000,0.00000000,2.50000000
2743,100.00000000,2.50000000,2.50000000
2744,87.50000000,5.00000000,2.50000000
2745,100.00000000,0.00000000,1.25000000
2746,100.00000000,5.00000000,1.25000000
2747,125.00000000,0.00000000,2.50000000
2748,125.00000000,5.00000000,2.50000000
2749,112.50000000,0.00000000,2.50000000
2750,125.00000000,2.50000000,2.50000000
2751,112.50000000,5.00000000,2.50000000
2752,125.00000000,0.00000000,1.25000000
2753,125.00000000,5.00000000,1.25000000
2754,150.00000000,0.00000000,2.50000000
2755,150.00000000,5.00000000,2.50000000
2756,137.50000000,0.00000000,2.50000000
2757,150.00000000,2.50000000,2.50000000
2758,137.50000000,5.00000000,2.50000000
2759,150.00000000,0.00000000,1.25000000
2760,150.00000000,5.00000000,1.25000000
2761,175.00000000,0.00000000,2.50000000
2762,175.00000000,5.00000000,2.50000000
2763,162.50000000,0.00000000,2.50000000
2764,175.00000000,2.50000000,2.50000000
2765,162.50000000,5.00000000,2.50000000
2766,175.00000000,0.00000000,1.25000000
2767,175.00000000,5.00000000,1.25000000
2768,190.00000000,0.00000000,2.50000000
2769,190.00000000,5.00000000,2.50000000
2770,182.50000000,0.00000000,2.50000000
2771,190.00000000,2.50000000,2.50000000
2772,182.50000000,5.00000000,2.50000000
2773,190.00000000,0.00000000,1.25000000
2774,190.00000000,5.00000000,1.25000000
2775,200.00000000,0.00000000,2.50000000
2776,200.00000000,5.00000000,2.50000000
2777,195.00000000,0.00000000,2.50000000
2778,200.00000000,2.50000000,2.50000000
2779,195.00000000,5.00000000,2.50000000
2780,200.00000000,0.00000000,1.25000000
2781,200.00000000,5.00000000,1.25000000
2782,210.00000000,0.00000000,2.50000000
2783,210.00000000,5.00000000,2.50000000
2784,205.00000000,0.00000000,2.50000000
2785,210.00000000,2.50000000,2.50000000
2786,205.00000000,5.00000000,2.50000000
2787,210.00000000,0.00000000,1.25000000
2788,210.00000000,5.00000000,1.25000000
2789,225.00000000,0.00000000,2.50000000
2790,225.00000000,5.00000000,2.50000000
2791,217.50000000,0.00000000,2.50000000
2792,225.00000000,2.50000000,2.50000000
2793,217.50000000,5.00000000,2.50000000
2794,225.00000000,0.00000000,1.25000000
2795,225.00000000,5.00000000,1.25000000
2796,250.00000000,0.00000000,2.50000000
2797,250.00000000,5.00000000,2.50000000
2798,237.50000000,0.00000000,2.50000000
2799,250.00000000,2.50000000,2.50000000
2800,237.50000000,5.00000000,2.50000000
2801,250.00000000,0.00000000,1.25000000
2802,250.00000000,5.00000000,1.25000000
2803,275.00000000,0.00000000,2.50000000
2804,275.00000000,5.00000000,2.50000000
2805,262.50000000,0.00000000,2.50000000
2806,275.00000000,2.50000000,2.50000000
2807,262.50000000,5.00000000,2.50000000
2808,275.00000000,0.00000000,1.25000000
2809,275.00000000,5.00000000,1.25000000
2810,290.00000000,0.00000000,2.50000000
2811,290.00000000,5.00000000,2.50000000
2812,282.50000000,0.00000000,2.50000000
2813,290.00000000,2.50000000,2.50000000
2814,282.50000000,5.00000000,2.50000000
2815,290.00000000,0.00000000,1.25000000
2816,290.00000000,5.00000000,1.25000000
2817,300.00000000,0.00000000,2.50000000
2818,300.00000000,5.00000000,2.50000000
2819,295.00000000,0.00000000,2.50000000
2820,300.00000000,2.50000000,2.50000000
2821,295.00000000,5.00000000,2.50000000
2822,300.00000000,0.00000000,1.25000000
2823,300.00000000,5.00000000,1.25000000
2824,310.00000000,0.00000000,2.50000000
2825,310.00000000,5.00000000,2.50000000
2826,305.00000000,0.00000000,2.50000000
2827,310.00000000,2.50000000,2.50000000
2828,305.00000000,5.00000000,2.50000000
2829,310.00000000,0.00000000,1.25000000
2830,310.00000000,5.00000000,1.25000000
2831,325.00000000,0.00000000,2.50000000
2832,325.00000000,5.00000000,2.50000000
2833,317.50000000,0.00000000,2.50000000
2834,325.00000000,2.50000000,2.50000000
2835,317.50000000,5.00000000,2.50000000
2836,325.00000000,0.00000000,1.25000000
2837,325.00000000,5.00000000,1.25000000
2838,350.00000000,0.00000000,2.50000000
2839,350.00000000,5.00000000,2.50000000
2840,337.50000000,0.00000000,2.50000000
2841,350.00000000,2.50000000,2.50000000
2842,337.50000000,5.00000000,2.50000000
2843,350.00000000,0.00000000,1.25000000
2844,350.00000000,5.00000000,1.25000000
2845,375.00000000,0.00000000,2.50000000
2846,375.00000000,5.00000000,2.50000000
2847,362.50000000,0.00000000,2.50000000
2848,375.00000000,2.50000000,2.50000000
2849,362.50000000,5.00000000,2.50000000
2850,375.00000000,0.00000000,1.25000000
2851,375.00000000,5.00000000,1.25000000
2852,400.00000000,0.00000000,2.50000000
2853,400.00000000,5.00000000,2.50000000
2854,387.50000000,0.00000000,2.50000000
2855,400.00000000,2.50000000,2.50000000
2856,387.50000000,5.00000000,2.50000000
2857,400.00000000,0.00000000,1.25000000
2858,400.00000000,5.00000000,1.25000000
2859,25.00000000,10.00000000,2.50000000
2860,0.00000000,10.00000000,2.50000000
2861,25.00000000,7.50000000,2.50000000
2862,12.50000000,10.00000000,2.50000000
2863,0.00000000,7.50000000,2.50000000
2864,25.00000000,10.00000000,1.25000000
2865,0.00000000,10.00000000,1.25000000
2866,50.00000000,10.00000000,2.50000000
2867,50.00000000,7.50000000,2.50000000
2868,37.50000000,10.00000000,2.50000000
2869,50.00000000,10.00000000,1.25000000
2870,75.00000000,10.00000000,2.50000000
2871,75.00000000,7.50000000,2.50000000
2872,62.50000000,10.00000000,2.50000000
2873,75.00000000,10.00000000,1.25000000
2874,100.00000000,10.00000000,2.50000000
2875,100.00000000,7.50000000,2.50000000
2876,87.50000000,10.00000000,2.50000000
2877,100.00000000,10.00000000,1.25000000
2878,125.00000000,10.00000000,2.50000000
2879,125.00000000,7.50000000,2.50000000
2880,112.50000000,10.00000000,2.50000000
2881,125.00000000,10.00000000,1.25000000
2882,150.00000000,10.00000000,2.50000000
2883,150.00000000,7.50000000,2.50000000
2884,137.50000000,10.00000000,2.50000000
2885,150.00000000,10.00000000,1.25000000
2886,175.00000000,10.00000000,2.50000000
2887,175.00000000,7.50000000,2.50000000
2888,162.50000000,10.00000000,2.50000000
2889,175.00000000,10.00000000,1.25000000
2890,190.00000000,10.00000000,2.50000000
2891,190.00000000,7.50000000,2.50000000
2892,182.50000000,10.00000000,2.50000000
2893,190.00000000,10.00000000,1.25000000
2894,200.00000000,10.00000000,2.50000000
2895,200.00000000,7.50000000,2.50000000
2896,195.00000000,10.00000000,2.50000000
2897,200.00000000,10.00000000,1.25000000
2898,210.00000000,10.00000000,2.50000000
2899,210.00000000,7.50000000,2.50000000
2900,205.00000000,10.00000000,2.50000000
2901,210.00000000,10.00000000,1.25000000
2902,225.00000000,10.00000000,2.50000000
2903,225.00000000,7.50000000,2.50000000
2904,217.50000000,10.00000000,2.50000000
2905,225.00000000,10.00000000,1.25000000
2906,250.00000000,10.00000000,2.50000000
2907,250.00000000,7.50000000,2.50000000
2908,237.50000000,10.00000000,2.50000000
2909,250.00000000,10.00000000,1.25000000
2910,275.00000000,10.00000000,2.50000000
2911,275.00000000,7.50000000,2.50000000
2912,262.50000000,10.00000000,2.50000000
2913,275.00000000,10.00000000,1.25000000
2914,290.00000000,10.00000000,2.50000000
2915,290.00000000,7.50000000,2.50000000
2916,282.50000000,10.00000000,2.50000000
2917,290.00000000,10.00000000,1.25000000
2918,300.00000000,10.00000000,2.50000000
2919,300.00000000,7.50000000,2.50000000
2920,295.00000000,10.00000000,2.50000000
2921,300.00000000,10.00000000,1.25000000
2922,310.00000000,10.00000000,2.50000000
2923,310.00000000,7.50000000,2.50000000
2924,305.00000000,10.00000000,2.50000000
2925,310.00000000,10.00000000,1.25000000
2926,325.00000000,10.00000000,2.50000000
2927,325.00000000,7.50000000,2.50000000
2928,317.50000000,10.00000000,2.50000000
2929,325.00000000,10.00000000,1.25000000
2930,350.00000000,10.00000000,2.50000000
2931,350.00000000,7.50000000,2.50000000
2932,337.50000000,10.00000000,2.50000000
2933,350.00000000,10.00000000,1.25000000
2934,375.00000000,10.00000000,2.50000000
2935,375.00000000,7.50000000,2.50000000
2936,362.50000000,10.00000000,2.50000000
2937,375.00000000,10.00000000,1.25000000
2938,400.00000000,10.00000000,2.50000000
2939,400.00000000,7.50000000,2.50000000
2940,387.50000000,10.00000000,2.50000000
2941,400.00000000,10.00000000,1.25000000
2942,25.00000000,15.00000000,2.50000000
2943,0.00000000,15.00000000,2.50000000
2944,25.00000000,12.50000000,2.50000000
2945,12.50000000,15.00000000,2.50000000
2946,0.00000000,12.50000000,2.50000000
2947,25.00000000,15.00000000,1.25000000
2948,0.00000000,15.00000000,1.25000000
2949,50.00000000,15.00000000,2.50000000
2950,50.00000000,12.50000000,2.50000000
2951,37.50000000,15.00000000,2.50000000
2952,50.00000000,15.00000000,1.25000000
2953,75.00000000,15.00000000,2.50000000
2954,75.00000000,12.50000000,2.50000000
2955,62.50000000,15.00000000,2.50000000
2956,75.00000000,15.00000000,1.25000000
2957,100.00000000,15.00000000,2.50000000
2958,100.00000000,12.50000000,2.50000000
2959,87.50000000,15.00000000,2.50000000
2960,100.00000000,15.00000000,1.25000000
2961,125.00000000,15.00000000,2.50000000
2962,125.00000000,12.50000000,2.50000000
2963,112.50000000,15.00000000,2.50000000
2964,125.00000000,15.00000000,1.25000000
2965,150.00000000,15.00000000,2.50000000
2966,150.00000000,12.50000000,2.50000000
2967,137.50000000,15.00000000,2.50000000
2968,150.00000000,15.00000000,1.25000000
2969,175.00000000,15.00000000,2.50000000
2970,175.00000000,12.50000000,2.50000000
2971,162.50000000,15.00000000,2.50000000
2972,175.00000000,15.00000000,1.25000000
2973,190.00000000,15.00000000,2.50000000
2974,190.00000000,12.50000000,2.50000000
2975,182.50000000,15.00000000,2.50000000
2976,190.00000000,15.00000000,1.25000000
2977,200.00000000,15.00000000,2.50000000
2978,200.00000000,12.50000000,2.50000000
2979,195.00000000,15.00000000,2.50000000
2980,200.00000000,15.00000000,1.25000000
2981,210.00000000,15.00000000,2.50000000
2982,210.00000000,12.50000000,2.50000000
2983,205.00000000,15.00000000,2.50000000
2984,210.00000000,15.00000000,1.25000000
2985,225.00000000,15.00000000,2.50000000
2986,225.00000000,12.50000000,2.50000000
2987,217.50000000,15.00000000,2.50000000
2988,225.00000000,15.00000000,1.25000000
2989,250.00000000,15.00000000,2.50000000
2990,250.00000000,12.50000000,2.50000000
2991,237.50000000,15.00000000,2.50000000
2992,250.00000000,15.00000000,1.25000000
2993,275.00000000,15.00000000,2.50000000
2994,275.00000000,12.50000000,2.50000000
2995,262.50000000,15.00000000,2.50000000
2996,275.00000000,15.00000000,1.25000000
2997,290.00000000,15.00000000,2.50000000
2998,290.00000000,12.50000000,2.50000000
2999,282.50000000,15.00000000,2.50000000
3000,290.00000000,15.00000000,1.25000000
3001,300.00000000,15.00000000,2.50000000
3002,300.00000000,12.50000000,2.50000000
3003,295.00000000,15.00000000,2.50000000
3004,300.00000000,15.00000000,1.25000000
3005,310.00000000,15.00000000,2.50000000
3006,310.00000000,12.50000000,2.50000000
3007,305.00000000,15.00000000,2.50000000
3008,310.00000000,15.00000000,1.25000000
3009,325.00000000,15.00000000,2.50000000
3010,325.00000000,12.50000000,2.50000000
3011,317.50000000,15.00000000,2.50000000
3012,325.00000000,15.00000000,1.25000000
3013,350.00000000,15.00000000,2.50000000
3014,350.00000000,12.50000000,2.50000000
3015,337.50000000,15.00000000,2.50000000
3016,350.00000000,15.00000000,1.25000000
3017,375.00000000,15.00000000,2.50000000
3018,375.00000000,12.50000000,2.50000000
3019,362.50000000,15.00000000,2.50000000
3020,375.00000000,15.00000000,1.25000000
3021,400.00000000,15.00000000,2.50000000
3022,400.00000000,12.50000000,2.50000000
3023,387.50000000,15.00000000,2.50000000
3024,400.00000000,15.00000000,1.25000000
3025,25.00000000,20.00000000,2.50000000
3026,0.00000000,20.00000000,2.50000000
3027,25.00000000,17.50000000,2.50000000
3028,12.50000000,20.00000000,2.50000000
3029,0.00000000,17.50000000,2.50000000
3030,25.00000000,20.00000000,1.25000000
3031,0.00000000,20.00000000,1.25000000
3032,50.00000000,20.00000000,2.50000000
3033,50.00000000,17.50000000,2.50000000
3034,37.50000000,20.00000000,2.50000000
3035,50.00000000,20.00000000,1.25000000
3036,75.00000000,20.00000000,2.50000000
3037,75.00000000,17.50000000,2.50000000
3038,62.50000000,20.00000000,2.50000000
3039,75.00000000,20.00000000,1.25000000
3040,100.00000000,20.00000000,2.50000000
3041,100.00000000,17.50000000,2.50000000
3042,87.50000000,20.00000000,2.50000000
3043,100.00000000,20.00000000,1.25000000
3044,125.00000000,20.00000000,2.50000000
3045,125.00000000,17.50000000,2.50000000
3046,112.50000000,20.00000000,2.50000000
3047,125.00000000,20.00000000,1.25000000
3048,150.00000000,20.00000000,2.50000000
3049,150.00000000,17.50000000,2.50000000
3050,137.50000000,20.00000000,2.50000000
3051,150.00000000,20.00000000,1.25000000
3052,175.00000000,20.00000000,2.50000000
3053,175.00000000,17.50000000,2.50000000
3054,162.50000000,20.00000000,2.50000000
3055,175.00000000,20.00000000,1.25000000
3056,190.00000000,20.00000000,2.50000000
3057,190.00000000,17.50000000,2.50000000
3058,182.50000000,20.00000000,2.50000000
3059,190.00000000,20.00000000,1.25000000
3060,200.00000000,20.00000000,2.50000000
3061,200.00000000,17.50000000,2.50000000
3062,195.00000000,20.00000000,2.50000000
3063,200.00000000,20.00000000,1.25000000
3064,210.00000000,20.00000000,2.50000000
3065,210.00000000,17.50000000,2.50000000
3066,205.00000000,20.00000000,2.50000000
3067,210.00000000,20.00000000,1.25000000
3068,225.00000000,20.00000000,2.50000000
3069,225.00000000,17.50000000,2.50000000
3070,217.50000000,20.00000000,2.50000000
3071,225.00000000,20.00000000,1.25000000
3072,250.00000000,20.00000000,2.50000000
3073,250.00000000,17.50000000,2.50000000
3074,237.50000000,20.00000000,2.50000000
3075,250.00000000,20.00000000,1.25000000
3076,275.00000000,20.00000000,2.50000000
3077,275.00000000,17.50000000,2.50000000
3078,262.50000000,20.00000000,2.50000000
3079,275.00000000,20.00000000,1.25000000
3080,290.00000000,20.00000000,2.50000000
3081,290.00000000,17.50000000,2.50000000
3082,282.50000000,20.00000000,2.50000000
3083,290.00000000,20.00000000,1.25000000
3084,300.00000000,20.00000000,2.50000000
3085,300.00000000,17.50000000,2.50000000
3086,295.00000000,20.00000000,2.50000000
3087,300.00000000,20.00000000,1.25000000
3088,310.00000000,20.00000000,2.50000000
3089,310.00000000,17.50000000,2.50000000
3090,305.00000000,20.00000000,2.50000000
3091,310.00000000,20.00000000,1.25000000
3092,325.00000000,20.00000000,2.50000000
3093,325.00000000,17.50000000,2.50000000
3094,317.50000000,20.00000000,2.50000000
3095,325.00000000,20.00000000,1.25000000
3096,350.00000000,20.00000000,2.50000000
3097,350.00000000,17.50000000,2.50000000
3098,337.50000000,20.00000000,2.50000000
3099,350.00000000,20.00000000,1.25000000
3100,375.00000000,20.00000000,2.50000000
3101,375.00000000,17.50000000,2.50000000
3102,362.50000000,20.00000000,2.50000000
3103,375.00000000,20.00000000,1.25000000
3104,400.00000000,20.00000000,2.50000000
3105,400.00000000,17.50000000,2.50000000
3106,387.50000000,20.00000000,2.50000000
3107,400.00000000,20.00000000,1.25000000
3108,25.00000000,30.00000000,2.50000000
3109,0.00000000,30.00000000,2.50000000
3110,25.00000000,25.00000000,2.50000000
3111,12.50000000,30.00000000,2.50000000
3112,0.00000000,25.00000000,2.50000000
3113,25.00000000,30.00000000,1.25000000
3114,0.00000000,30.00000000,1.25000000
3115,50.00000000,30.00000000,2.50000000
3116,50.00000000,25.00000000,2.50000000
3117,37.50000000,30.00000000,2.50000000
3118,50.00000000,30.00000000,1.25000000
3119,75.00000000,30.00000000,2.50000000
3120,75.00000000,25.00000000,2.50000000
3121,62.50000000,30.00000000,2.50000000
3122,75.00000000,30.00000000,1.25000000
3123,100.00000000,30.00000000,2.50000000
3124,100.00000000,25.00000000,2.50000000
3125,87.50000000,30.00000000,2.50000000
3126,100.00000000,30.00000000,1.25000000
3127,125.00000000,30.00000000,2.50000000
3128,125.00000000,25.00000000,2.50000000
3129,112.50000000,30.00000000,2.50000000
3130,125.00000000,30.00000000,1.25000000
3131,150.00000000,30.00000000,2.50000000
3132,150.00000000,25.00000000,2.50000000
3133,137.50000000,30.00000000,2.50000000
3134,150.00000000,30.00000000,1.25000000
3135,175.00000000,30.00000000,2.50000000
3136,175.00000000,25.00000000,2.50000000
3137,162.50000000,30.00000000,2.50000000
3138,175.00000000,30.00000000,1.25000000
3139,190.00000000,30.00000000,2.50000000
3140,190.00000000,25.00000000,2.50000000
3141,182.50000000,30.00000000,2.50000000
3142,190.00000000,30.00000000,1.25000000
3143,200.00000000,30.00000000,2.50000000
3144,200.00000000,25.00000000,2.50000000
3145,195.00000000,30.00000000,2.50000000
3146,200.00000000,30.00000000,1.25000000
3147,210.00000000,30.00000000,2.50000000
3148,210.00000000,25.00000000,2.50000000
3149,205.00000000,30.00000000,2.50000000
3150,210.00000000,30.00000000,1.25000000
3151,225.00000000,30.00000000,2.50000000
3152,225.00000000,25.00000000,2.50000000
3153,217.50000000,30.00000000,2.50000000
3154,225.00000000,30.00000000,1.25000000
3155,250.00000000,30.00000000,2.50000000
3156,250.00000000,25.00000000,2.50000000
3157,237.50000000,30.00000000,2.50000000
3158,250.00000000,30.00000000,1.25000000
3159,275.00000000,30.00000000,2.50000000
3160,275.00000000,25.00000000,2.50000000
3161,262.50000000,30.00000000,2.50000000
3162,275.00000000,30.00000000,1.25000000
3163,290.00000000,30.00000000,2.50000000
3164,290.00000000,25.00000000,2.50000000
3165,282.50000000,30.00000000,2.50000000
3166,290.00000000,30.00000000,1.25000000
3167,300.00000000,30.00000000,2.50000000
3168,300.00000000,25.00000000,2.50000000
3169,295.00000000,30.00000000,2.50000000
3170,300.00000000,30.00000000,1.25000000
3171,310.00000000,30.00000000,2.50000000
3172,310.00000000,25.00000000,2.50000000
3173,305.00000000,30.00000000,2.50000000
3174,310.00000000,30.00000000,1.25000000
3175,325.00000000,30.00000000,2.50000000
3176,325.00000000,25.00000000,2.50000000
3177,317.50000000,30.00000000,2.50000000
3178,325.00000000,30.00000000,1.25000000
3179,350.00000000,30.00000000,2.50000000
3180,350.00000000,25.00000000,2.50000000
3181,337.50000000,30.00000000,2.50000000
3182,350.00000000,30.00000000,1.25000000
3183,375.00000000,30.00000000,2.50000000
3184,375.00000000,25.00000000,2.50000000
3185,362.50000000,30.00000000,2.50000000
3186,375.00000000,30.00000000,1.25000000
3187,400.00000000,30.00000000,2.50000000
3188,400.00000000,25.00000000,2.50000000
3189,387.50000000,30.00000000,2.50000000
3190,400.00000000,30.00000000,1.25000000
3191,25.00000000,50.00000000,2.50000000
3192,0.00000000,50.00000000,2.50000000
3193,25.00000000,40.00000000,2.50000000
3194,12.50000000,50.00000000,2.50000000
3195,0.00000000,40.00000000,2.50000000
3196,25.00000000,50.00000000,1.25000000
3197,0.00000000,50.00000000,1.25000000
3198,50.00000000,50.00000000,2.50000000
3199,50.00000000,40.00000000,2.50000000
3200,37.50000000,50.00000000,2.50000000
3201,50.00000000,50.00000000,1.25000000
3202,75.00000000,50.00000000,2.50000000
3203,75.00000000,40.00000000,2.50000000
3204,62.50000000,50.00000000,2.50000000
3205,75.00000000,50.00000000,1.25000000
3206,100.00000000,50.00000000,2.50000000
3207,100.00000000,40.00000000,2.50000000
3208,87.50000000,50.00000000,2.50000000
3209,100.00000000,50.00000000,1.25000000
3210,125.00000000,50.00000000,2.50000000
3211,125.00000000,40.00000000,2.50000000
3212,112.50000000,50.00000000,2.50000000
3213,125.00000000,50.00000000,1.25000000
3214,150.00000000,50.00000000,2.50000000
3215,150.00000000,40.00000000,2.50000000
3216,137.50000000,50.00000000,2.50000000
3217,150.00000000,50.00000000,1.25000000
3218,175.00000000,50.00000000,2.50000000
3219,175.00000000,40.00000000,2.50000000
3220,162.50000000,50.00000000,2.50000000
3221,175.00000000,50.00000000,1.25000000
3222,190.00000000,50.00000000,2.50000000
3223,190.00000000,40.00000000,2.50000000
3224,182.50000000,50.00000000,2.50000000
3225,190.00000000,50.00000000,1.25000000
3226,200.00000000,50.00000000,2.50000000
3227,200.00000000,40.00000000,2.50000000
3228,195.00000000,50.00000000,2.50000000
3229,200.00000000,50.00000000,1.25000000
3230,210.00000000,50.00000000,2.50000000
3231,210.00000000,40.00000000,2.50000000
3232,205.00000000,50.00000000,2.50000000
3233,210.00000000,50.00000000,1.25000000
3234,225.00000000,50.00000000,2.50000000
3235,225.00000000,40.00000000,2.50000000
3236,217.50000000,50.00000000,2.50000000
3237,225.00000000,50.00000000,1.25000000
3238,250.00000000,50.00000000,2.50000000
3239,250.00000000,40.00000000,2.50000000
3240,237.50000000,50.00000000,2.50000000
3241,250.00000000,50.00000000,1.25000000
3242,275.00000000,50.00000000,2.50000000
3243,275.00000000,40.00000000,2.50000000
3244,262.50000000,50.00000000,2.50000000
3245,275.00000000,50.00000000,1.25000000
3246,290.00000000,50.00000000,2.50000000
3247,290.00000000,40.00000000,2.50000000
3248,282.50000000,50.00000000,2.50000000
3249,290.00000000,50.00000000,1.25000000
3250,300.00000000,50.00000000,2.50000000
3251,300.00000000,40.00000000,2.50000000
3252,295.00000000,50.00000000,2.50000000
3253,300.00000000,50.00000000,1.25000000
3254,310.00000000,50.00000000,2.50000000
3255,310.00000000,40.00000000,2.50000000
3256,305.00000000,50.00000000,2.50000000
3257,310.00000000,50.00000000,1.25000000
3258,325.00000000,50.00000000,2.50000000
3259,325.00000000,40.00000000,2.50000000
3260,317.50000000,50.00000000,2.50000000
3261,325.00000000,50.00000000,1.25000000
3262,350.00000000,50.00000000,2.50000000
3263,350.00000000,40.00000000,2.50000000
3264,337.50000000,50.00000000,2.50000000
3265,350.00000000,50.00000000,1.25000000
3266,375.00000000,50.00000000,2.50000000
3267,375.00000000,40.00000000,2.50000000
3268,362.50000000,50.00000000,2.50000000
3269,375.00000000,50.00000000,1.25000000
3270,400.00000000,50.00000000,2.50000000
3271,400.00000000,40.00000000,2.50000000
3272,387.50000000,50.00000000,2.50000000
3273,400.00000000,50.00000000,1.25000000
3274,25.00000000,75.00000000,2.50000000
3275,0.00000000,75.00000000,2.50000000
3276,25.00000000,62.50000000,2.50000000
3277,12.50000000,75.00000000,2.50000000
3278,0.00000000,62.50000000,2.50000000
3279,25.00000000,75.00000000,1.25000000
3280,0.00000000,75.00000000,1.25000000
3281,50.00000000,75.00000000,2.50000000
3282,50.00000000,62.50000000,2.50000000
3283,37.50000000,75.00000000,2.50000000
3284,50.00000000,75.00000000,1.25000000
3285,75.00000000,75.00000000,2.50000000
3286,75.00000000,62.50000000,2.50000000
3287,62.50000000,75.00000000,2.50000000
3288,75.00000000,75.00000000,1.25000000
3289,100.00000000,75.00000000,2.50000000
3290,100.00000000,62.50000000,2.50000000
3291,87.50000000,75.00000000,2.50000000
3292,100.00000000,75.00000000,1.25000000
3293,125.00000000,75.00000000,2.50000000
3294,125.00000000,62.50000000,2.50000000
3295,112.50000000,75.00000000,2.50000000
3296,125.00000000,75.00000000,1.25000000
3297,150.00000000,75.00000000,2.50000000
3298,150.00000000,62.50000000,2.50000000
3299,137.50000000,75.00000000,2.50000000
3300,150.00000000,75.00000000,1.25000000
3301,175.00000000,75.00000000,2.50000000
3302,175.00000000,62.50000000,2.50000000
3303,162.50000000,75.00000000,2.50000000
3304,175.00000000,75.00000000,1.25000000
3305,190.00000000,75.00000000,2.50000000
3306,190.00000000,62.50000000,2.50000000
3307,182.50000000,75.00000000,2.50000000
3308,190.00000000,75.00000000,1.25000000
3309,200.00000000,75.00000000,2.50000000
3310,200.00000000,62.50000000,2.50000000
3311,195.00000000,75.00000000,2.50000000
3312,200.00000000,75.00000000,1.25000000
3313,210.00000000,75.00000000,2.50000000
3314,210.00000000,62.50000000,2.50000000
3315,205.00000000,75.00000000,2.50000000
3316,210.00000000,75.00000000,1.25000000
3317,225.00000000,75.00000000,2.50000000
3318,225.00000000,62.50000000,2.50000000
3319,217.50000000,75.00000000,2.50000000
3320,225.00000000,75.00000000,1.25000000
3321,250.00000000,75.00000000,2.50000000
3322,250.00000000,62.50000000,2.50000000
3323,237.50000000,75.00000000,2.50000000
3324,250.00000000,75.00000000,1.25000000
3325,275.00000000,75.00000000,2.50000000
3326,275.00000000,62.50000000,2.50000000
3327,262.50000000,75.00000000,2.50000000
3328,275.00000000,75.00000000,1.25000000
3329,290.00000000,75.00000000,2.50000000
3330,290.00000000,62.50000000,2.50000000
3331,282.50000000,75.00000000,2.50000000
3332,290.00000000,75.00000000,1.25000000
3333,300.00000000,75.00000000,2.50000000
3334,300.00000000,62.50000000,2.50000000
3335,295.00000000,75.00000000,2.50000000
3336,300.00000000,75.00000000,1.25000000
3337,310.00000000,75.00000000,2.50000000
3338,310.00000000,62.50000000,2.50000000
3339,305.00000000,75.00000000,2.50000000
3340,310.00000000,75.00000000,1.25000000
3341,325.00000000,75.00000000,2.50000000
3342,325.00000000,62.50000000,2.50000000
3343,317.50000000,75.00000000,2.50000000
3344,325.00000000,75.00000000,1.25000000
3345,350.00000000,75.00000000,2.50000000
3346,350.00000000,62.50000000,2.50000000
3347,337.50000000,75.00000000,2.50000000
3348,350.00000000,75.00000000,1.25000000
3349,375.00000000,75.00000000,2.50000000
3350,375.00000000,62.50000000,2.50000000
3351,362.50000000,75.00000000,2.50000000
3352,375.00000000,75.00000000,1.25000000
3353,400.00000000,75.00000000,2.50000000
3354,400.00000000,62.50000000,2.50000000
3355,387.50000000,75.00000000,2.50000000
3356,400.00000000,75.00000000,1.25000000
3357,25.00000000,90.00000000,2.50000000
3358,0.00000000,90.00000000,2.50000000
3359,25.00000000,82.50000000,2.50000000
3360,12.50000000,90.00000000,2.50000000
3361,0.00000000,82.50000000,2.50000000
3362,25.00000000,90.00000000,1.25000000
3363,0.00000000,90.00000000,1.25000000
3364,50.00000000,90.00000000,2.50000000
3365,50.00000000,82.50000000,2.50000000
3366,37.50000000,90.00000000,2.50000000
3367,50.00000000,90.00000000,1.25000000
3368,75.00000000,90.00000000,2.50000000
3369,75.00000000,82.50000000,2.50000000
3370,62.50000000,90.00000000,2.50000000
3371,75.00000000,90.00000000,1.25000000
3372,100.00000000,90.00000000,2.50000000
3373,100.00000000,82.50000000,2.50000000
3374,87.50000000,90.00000000,2.50000000
3375,100.00000000,90.00000000,1.25000000
3376,125.00000000,90.00000000,2.50000000
3377,125.00000000,82.50000000,2.50000000
3378,112.50000000,90.00000000,2.50000000
3379,125.00000000,90.00000000,1.25000000
3380,150.00000000,90.00000000,2.50000000
3381,150.00000000,82.50000000,2.50000000
3382,137.50000000,90.00000000,2.50000000
3383,150.00000000,90.00000000,1.25000000
3384,175.00000000,90.00000000,2.50000000
3385,175.00000000,82.50000000,2.50000000
3386,162.50000000,90.00000000,2.50000000
3387,175.00000000,90.00000000,1.25000000
3388,190.00000000,90.00000000,2.50000000
3389,190.00000000,82.50000000,2.50000000
3390,182.50000000,90.00000000,2.50000000
3391,190.00000000,90.00000000,1.25000000
3392,200.00000000,90.00000000,2.50000000
3393,200.00000000,82.50000000,2.50000000
3394,195.00000000,90.00000000,2.50000000
3395,200.00000000,90.00000000,1.25000000
3396,210.00000000,90.00000000,2.50000000
3397,210.00000000,82.50000000,2.50000000
3398,205.00000000,90.00000000,2.50000000
3399,210.00000000,90.00000000,1.25000000
3400,225.00000000,90.00000000,2.50000000
3401,225.00000000,82.50000000,2.50000000
3402,217.50000000,90.00000000,2.50000000
3403,225.00000000,90.00000000,1.25000000
3404,250.00000000,90.00000000,2.50000000
3405,250.00000000,82.50000000,2.50000000
3406,237.50000000,90.00000000,2.50000000
3407,250.00000000,90.00000000,1.25000000
3408,275.00000000,90.00000000,2.50000000
3409,275.00000000,82.50000000,2.50000000
3410,262.50000000,90.00000000,2.50000000
3411,275.00000000,90.00000000,1.25000000
3412,290.00000000,90.00000000,2.50000000
3413,290.00000000,82.50000000,2.50000000
3414,282.50000000,90.00000000,2.50000000
3415,290.00000000,90.00000000,1.25000000
3416,300.00000000,90.00000000,2.50000000
3417,300.00000000,82.50000000,2.50000000
3418,295.00000000,90.00000000,2.50000000
3419,300.00000000,90.00000000,1.25000000
3420,310.00000000,90.00000000,2.50000000
3421,310.00000000,82.50000000,2.50000000
3422,305.00000000,90.00000000,2.50000000
3423,310.00000000,90.00000000,1.25000000
3424,325.00000000,90.00000000,2.50000000
3425,325.00000000,82.50000000,2.50000000
3426,317.50000000,90.00000000,2.50000000
3427,325.00000000,90.00000000,1.25000000
3428,350.00000000,90.00000000,2.50000000
3429,350.00000000,82.50000000,2.50000000
3430,337.50000000,90.00000000,2.50000000
3431,350.00000000,90.00000000,1.25000000
3432,375.00000000,90.00000000,2.50000000
3433,375.00000000,82.50000000,2.50000000
3434,362.50000000,90.00000000,2.50000000
3435,375.00000000,90.00000000,1.25000000
3436,400.00000000,90.00000000,2.50000000
3437,400.00000000,82.50000000,2.50000000
3438,387.50000000,90.00000000,2.50000000
3439,400.00000000,90.00000000,1.25000000
3440,25.00000000,100.00000000,2.50000000
3441,0.00000000,100.00000000,2.50000000
3442,25.00000000,95.00000000,2.50000000
3443,12.50000000,100.00000000,2.50000000
3444,0.00000000,95.00000000,2.50000000
3445,25.00000000,100.00000000,1.25000000
3446,0.00000000,100.00000000,1.25000000
3447,50.00000000,100.00000000,2.50000000
3448,50.00000000,95.00000000,2.50000000
3449,37.50000000,100.00000000,2.50000000
3450,50.00000000,100.00000000,1.25000000
3451,75.00000000,100.00000000,2.50000000
3452,75.00000000,95.00000000,2.50000000
3453,62.50000000,100.00000000,2.50000000
3454,75.00000000,100.00000000,1.25000000
3455,100.00000000,100.00000000,2.50000000
3456,100.00000000,95.00000000,2.50000000
3457,87.50000000,100.00000000,2.50000000
3458,100.00000000,100.00000000,1.25000000
3459,125.00000000,100.00000000,2.50000000
3460,125.00000000,95.00000000,2.50000000
3461,112.50000000,100.00000000,2.50000000
3462,125.00000000,100.00000000,1.25000000
3463,150.00000000,100.00000000,2.50000000
3464,150.00000000,95.00000000,2.50000000
3465,137.50000000,100.00000000,2.50000000
3466,150.00000000,100.00000000,1.25000000
3467,175.00000000,100.00000000,2.50000000
3468,175.00000000,95.00000000,2.50000000
3469,162.50000000,100.00000000,2.50000000
3470,175.00000000,100.00000000,1.25000000
3471,190.00000000,100.00000000,2.50000000
3472,190.00000000,95.00000000,2.50000000
3473,182.50000000,100.00000000,2.50000000
3474,190.00000000,100.00000000,1.25000000
3475,200.00000000,100.00000000,2.50000000
3476,200.00000000,95.00000000,2.50000000
3477,195.00000000,100.00000000,2.50000000
3478,200.00000000,100.00000000,1.25000000
3479,210.00000000,100.00000000,2.50000000
3480,210.00000000,95.00000000,2.50000000
3481,205.00000000,100.00000000,2.50000000
3482,210.00000000,100.00000000,1.25000000
3483,225.00000000,100.00000000,2.50000000
3484,225.00000000,95.00000000,2.50000000
3485,217.50000000,100.00000000,2.50000000
3486,225.00000000,100.00000000,1.25000000
3487,250.00000000,100.00000000,2.50000000
3488,250.00000000,95.00000000,2.50000000
3489,237.50000000,100.00000000,2.50000000
3490,250.00000000,100.00000000,1.25000000
3491,275.00000000,100.00000000,2.50000000
3492,275.00000000,95.00000000,2.50000000
3493,262.50000000,100.00000000,2.50000000
3494,275.00000000,100.00000000,1.25000000
3495,290.00000000,100.00000000,2.50000000
3496,290.00000000,95.00000000,2.50000000
3497,282.50000000,100.00000000,2.50000000
3498,290.00000000,100.00000000,1.25000000
3499,300.00000000,100.00000000,2.50000000
3500,300.00000000,95.00000000,2.50000000
3501,295.00000000,100.00000000,2.50000000
3502,300.00000000,100.00000000,1.25000000
3503,310.00000000,100.00000000,2.50000000
3504,310.00000000,95.00000000,2.50000000
3505,305.00000000,100.00000000,2.50000000
3506,310.00000000,100.00000000,1.25000000
3507,325.00000000,100.00000000,2.50000000
3508,325.00000000,95.00000000,2.50000000
3509,317.50000000,100.00000000,2.50000000
3510,325.00000000,100.00000000,1.25000000
3511,350.00000000,100.00000000,2.50000000
3512,350.00000000,95.00000000,2.50000000
3513,337.50000000,100.00000000,2.50000000
3514,350.00000000,100.00000000,1.25000000
3515,375.00000000,100.00000000,2.50000000
3516,375.00000000,95.00000000,2.50000000
3517,362.50000000,100.00000000,2.50000000
3518,375.00000000,100.00000000,1.25000000
3519,400.00000000,100.00000000,2.50000000
3520,400.00000000,95.00000000,2.50000000
3521,387.50000000,100.00000000,2.50000000
3522,400.00000000,100.00000000,1.25000000
3523,25.00000000,110.00000000,2.50000000
3524,0.00000000,110.00000000,2.50000000
3525,25.00000000,105.00000000,2.50000000
3526,12.50000000,110.00000000,2.50000000
3527,0.00000000,105.00000000,2.50000000
3528,25.00000000,110.00000000,1.25000000
3529,0.00000000,110.00000000,1.25000000
3530,50.00000000,110.00000000,2.50000000
3531,50.00000000,105.00000000,2.50000000
3532,37.50000000,110.00000000,2.50000000
3533,50.00000000,110.00000000,1.25000000
3534,75.00000000,110.00000000,2.50000000
3535,75.00000000,105.00000000,2.50000000
3536,62.50000000,110.00000000,2.50000000
3537,75.00000000,110.00000000,1.25000000
3538,100.00000000,110.00000000,2.50000000
3539,100.00000000,105.00000000,2.50000000
3540,87.50000000,110.00000000,2.50000000
3541,100.00000000,110.00000000,1.25000000
3542,125.00000000,110.00000000,2.50000000
3543,125.00000000,105.00000000,2.50000000
3544,112.50000000,110.00000000,2.50000000
3545,125.00000000,110.00000000,1.25000000
3546,150.00000000,110.00000000,2.50000000
3547,150.00000000,105.00000000,2.50000000
3548,137.50000000,110.00000000,2.50000000
3549,150.00000000,110.00000000,1.25000000
3550,175.00000000,110.00000000,2.50000000
3551,175.00000000,105.00000000,2.50000000
3552,162.50000000,110.00000000,2.50000000
3553,175.00000000,110.00000000,1.25000000
3554,190.00000000,110.00000000,2.50000000
3555,190.00000000,105.00000000,2.50000000
3556,182.50000000,110.00000000,2.50000000
3557,190.00000000,110.00000000,1.25000000
3558,200.00000000,110.00000000,2.50000000
3559,200.00000000,105.00000000,2.50000000
3560,195.00000000,110.00000000,2.50000000
3561,200.00000000,110.00000000,1.25000000
3562,210.00000000,110.00000000,2.50000000
3563,210.00000000,105.00000000,2.50000000
3564,205.00000000,110.00000000,2.50000000
3565,210.00000000,110.00000000,1.25000000
3566,225.00000000,110.00000000,2.50000000
3567,225.00000000,105.00000000,2.50000000
3568,217.50000000,110.00000000,2.50000000
3569,225.00000000,110.00000000,1.25000000
3570,250.00000000,110.00000000,2.50000000
3571,250.00000000,105.00000000,2.50000000
3572,237.50000000,110.00000000,2.50000000
3573,250.00000000,110.00000000,1.25000000
3574,275.00000000,110.00000000,2.50000000
3575,275.00000000,105.00000000,2.50000000
3576,262.50000000,110.00000000,2.50000000
3577,275.00000000,110.00000000,1.25000000
3578,290.00000000,110.00000000,2.50000000
3579,290.00000000,105.00000000,2.50000000
3580,282.50000000,110.00000000,2.50000000
3581,290.00000000,110.00000000,1.25000000
3582,300.00000000,110.00000000,2.50000000
3583,300.00000000,105.00000000,2.50000000
3584,295.00000000,110.00000000,2.50000000
3585,300.00000000,110.00000000,1.25000000
3586,310.00000000,110.00000000,2.50000000
3587,310.00000000,105.00000000,2.50000000
3588,305.00000000,110.00000000,2.50000000
3589,310.00000000,110.00000000,1.25000000
3590,325.00000000,110.00000000,2.50000000
3591,325.00000000,105.00000000,2.50000000
3592,317.50000000,110.00000000,2.50000000
3593,325.00000000,110.00000000,1.25000000
3594,350.00000000,110.00000000,2.50000000
3595,350.00000000,105.00000000,2.50000000
3596,337.50000000,110.00000000,2.50000000
3597,350.00000000,110.00000000,1.25000000
3598,375.00000000,110.00000000,2.50000000
3599,375.00000000,105.00000000,2.50000000
3600,362.50000000,110.00000000,2.50000000
3601,375.00000000,110.00000000,1.25000000
3602,400.00000000,110.00000000,2.50000000
3603,400.00000000,105.00000000,2.50000000
3604,387.50000000,110.00000000,2.50000000
3605,400.00000000,110.00000000,1.25000000
3606,25.00000000,125.00000000,2.50000000
3607,0.00000000,125.00000000,2.50000000
3608,25.00000000,117.50000000,2.50000000
3609,12.50000000,125.00000000,2.50000000
3610,0.00000000,117.50000000,2.50000000
3611,25.00000000,125.00000000,1.25000000
3612,0.00000000,125.00000000,1.25000000
3613,50.00000000,125.00000000,2.50000000
3614,50.00000000,117.50000000,2.50000000
3615,37.50000000,125.00000000,2.50000000
3616,50.00000000,125.00000000,1.25000000
3617,75.00000000,125.00000000,2.50000000
3618,75.00000000,117.50000000,2.50000000
3619,62.50000000,125.00000000,2.50000000
3620,75.00000000,125.00000000,1.25000000
3621,100.00000000,125.00000000,2.50000000
3622,100.00000000,117.50000000,2.50000000
3623,87.50000000,125.00000000,2.50000000
3624,100.00000000,125.00000000,1.25000000
3625,125.00000000,125.00000000,2.50000000
3626,125.00000000,117.50000000,2.50000000
3627,112.50000000,125.00000000,2.50000000
3628,125.00000000,125.00000000,1.25000000
3629,150.00000000,125.00000000,2.50000000
3630,150.00000000,117.50000000,2.50000000
3631,137.50000000,125.00000000,2.50000000
3632,150.00000000,125.00000000,1.25000000
3633,175.00000000,125.00000000,2.50000000
3634,175.00000000,117.50000000,2.50000000
3635,162.50000000,125.00000000,2.50000000
3636,175.00000000,125.00000000,1.25000000
3637,190.00000000,125.00000000,2.50000000
3638,190.00000000,117.50000000,2.50000000
3639,182.50000000,125.00000000,2.50000000
3640,190.00000000,125.00000000,1.25000000
3641,200.00000000,125.00000000,2.50000000
3642,200.00000000,117.50000000,2.50000000
3643,195.00000000,125.00000000,2.50000000
3644,200.00000000,125.00000000,1.25000000
3645,210.00000000,125.00000000,2.50000000
3646,210.00000000,117.50000000,2.50000000
3647,205.00000000,125.00000000,2.50000000
3648,210.00000000,125.00000000,1.25000000
3649,225.00000000,125.00000000,2.50000000
3650,225.00000000,117.50000000,2.50000000
3651,217.50000000,125.00000000,2.50000000
3652,225.00000000,125.00000000,1.25000000
3653,250.00000000,125.00000000,2.50000000
3654,250.00000000,117.50000000,2.50000000
3655,237.50000000,125.00000000,2.50000000
3656,250.00000000,125.00000000,1.25000000
3657,275.00000000,125.00000000,2.50000000
3658,275.00000000,117.50000000,2.50000000
3659,262.50000000,125.00000000,2.50000000
3660,275.00000000,125.00000000,1.25000000
3661,290.00000000,125.00000000,2.50000000
3662,290.00000000,117.50000000,2.50000000
3663,282.50000000,125.00000000,2.50000000
3664,290.00000000,125.00000000,1.25000000
3665,300.00000000,125.00000000,2.50000000
3666,300.00000000,117.50000000,2.50000000
3667,295.00000000,125.00000000,2.50000000
3668,300.00000000,125.00000000,1.25000000
3669,310.00000000,125.00000000,2.50000000
3670,310.00000000,117.50000000,2.50000000
3671,305.00000000,125.00000000,2.50000000
3672,310.00000000,125.00000000,1.25000000
3673,325.00000000,125.00000000,2.50000000
3674,325.00000000,117.50000000,2.50000000
3675,317.50000000,125.00000000,2.50000000
3676,325.00000000,125.00000000,1.25000000
3677,350.00000000,125.00000000,2.50000000
3678,350.00000000,117.50000000,2.50000000
3679,337.50000000,125.00000000,2.50000000
3680,350.00000000,125.00000000,1.25000000
3681,375.00000000,125.00000000,2.50000000
3682,375.00000000,117.50000000,2.50000000
3683,362.50000000,125.00000000,2.50000000
3684,375.00000000,125.00000000,1.25000000
3685,400.00000000,125.00000000,2.50000000
3686,400.00000000,117.50000000,2.50000000
3687,387.50000000,125.00000000,2.50000000
3688,400.00000000,125.00000000,1.25000000
3689,25.00000000,150.00000000,2.50000000
3690,0.00000000,150.00000000,2.50000000
3691,25.00000000,137.50000000,2.50000000
3692,12.50000000,150.00000000,2.50000000
3693,0.00000000,137.50000000,2.50000000
3694,25.00000000,150.00000000,1.25000000
3695,0.00000000,150.00000000,1.25000000
3696,50.00000000,150.00000000,2.50000000
3697,50.00000000,137.50000000,2.50000000
3698,37.50000000,150.00000000,2.50000000
3699,50.00000000,150.00000000,1.25000000
3700,75.00000000,150.00000000,2.50000000
3701,75.00000000,137.50000000,2.50000000
3702,62.50000000,150.00000000,2.50000000
3703,75.00000000,150.00000000,1.25000000
3704,100.00000000,150.00000000,2.50000000
3705,100.00000000,137.50000000,2.50000000
3706,87.50000000,150.00000000,2.50000000
3707,100.00000000,150.00000000,1.25000000
3708,125.00000000,150.00000000,2.50000000
3709,125.00000000,137.50000000,2.50000000
3710,112.50000000,150.00000000,2.50000000
3711,125.00000000,150.00000000,1.25000000
3712,150.00000000,150.00000000,2.50000000
3713,150.00000000,137.50000000,2.50000000
3714,137.50000000,150.00000000,2.50000000
3715,150.00000000,150.00000000,1.25000000
3716,175.00000000,150.00000000,2.50000000
3717,175.00000000,137.50000000,2.50000000
3718,162.50000000,150.00000000,2.50000000
3719,175.00000000,150.00000000,1.25000000
3720,190.00000000,150.00000000,2.50000000
3721,190.00000000,137.50000000,2.50000000
3722,182.50000000,150.00000000,2.50000000
3723,190.00000000,150.00000000,1.25000000
3724,200.00000000,150.00000000,2.50000000
3725,200.00000000,137.50000000,2.50000000
3726,195.00000000,150.00000000,2.50000000
3727,200.00000000,150.00000000,1.25000000
3728,210.00000000,150.00000000,2.50000000
3729,210.00000000,137.50000000,2.50000000
3730,205.00000000,150.00000000,2.50000000
3731,210.00000000,150.00000000,1.25000000
3732,225.00000000,150.00000000,2.50000000
3733,225.00000000,137.50000000,2.50000000
3734,217.50000000,150.00000000,2.50000000
3735,225.00000000,150.00000000,1.25000000
3736,250.00000000,150.00000000,2.50000000
3737,250.00000000,137.50000000,2.50000000
3738,237.50000000,150.00000000,2.50000000
3739,250.00000000,150.00000000,1.25000000
3740,275.00000000,150.00000000,2.50000000
3741,275.00000000,137.50000000,2.50000000
3742,262.50000000,150.00000000,2.50000000
3743,275.00000000,150.00000000,1.25000000
3744,290.00000000,150.00000000,2.50000000
3745,290.00000000,137.50000000,2.50000000
3746,282.50000000,150.00000000,2.50000000
3747,290.00000000,150.00000000,1.25000000
3748,300.00000000,150.00000000,2.50000000
3749,300.00000000,137.50000000,2.50000000
3750,295.00000000,150.00000000,2.50000000
3751,300.00000000,150.00000000,1.25000000
3752,310.00000000,150.00000000,2.50000000
3753,310.00000000,137.50000000,2.50000000
3754,305.00000000,150.00000000,2.50000000
3755,310.00000000,150.00000000,1.25000000
3756,325.00000000,150.00000000,2.50000000
3757,325.00000000,137.50000000,2.50000000
3758,317.50000000,150.00000000,2.50000000
3759,325.00000000,150.00000000,1.25000000
3760,350.00000000,150.00000000,2.50000000
3761,350.00000000,137.50000000,2.50000000
3762,337.50000000,150.00000000,2.50000000
3763,350.00000000,150.00000000,1.25000000
3764,375.00000000,150.00000000,2.50000000
3765,375.00000000,137.50000000,2.50000000
3766,362.50000000,150.00000000,2.50000000
3767,375.00000000,150.00000000,1.25000000
3768,400.00000000,150.00000000,2.50000000
3769,400.00000000,137.50000000,2.50000000
3770,387.50000000,150.00000000,2.50000000
3771,400.00000000,150.00000000,1.25000000
3772,25.00000000,175.00000000,2.50000000
3773,0.00000000,175.00000000,2.50000000
3774,25.00000000,162.50000000,2.50000000
3775,12.50000000,175.00000000,2.50000000
3776,0.00000000,162.50000000,2.50000000
3777,25.00000000,175.00000000,1.25000000
3778,0.00000000,175.00000000,1.25000000
3779,50.00000000,175.00000000,2.50000000
3780,50.00000000,162.50000000,2.50000000
3781,37.50000000,175.00000000,2.50000000
3782,50.00000000,175.00000000,1.25000000
3783,75.00000000,175.00000000,2.50000000
3784,75.00000000,162.50000000,2.50000000
3785,62.50000000,175.00000000,2.50000000
3786,75.00000000,175.00000000,1.25000000
3787,100.00000000,175.00000000,2.50000000
3788,100.00000000,162.50000000,2.50000000
3789,87.50000000,175.00000000,2.50000000
3790,100.00000000,175.00000000,1.25000000
3791,125.00000000,175.00000000,2.50000000
3792,125.00000000,162.50000000,2.50000000
3793,112.50000000,175.00000000,2.50000000
3794,125.00000000,175.00000000,1.25000000
3795,150.00000000,175.00000000,2.50000000
3796,150.00000000,162.50000000,2.50000000
3797,137.50000000,175.00000000,2.50000000
3798,150.00000000,175.00000000,1.25000000
3799,175.00000000,175.00000000,2.50000000
3800,175.00000000,162.50000000,2.50000000
3801,162.50000000,175.00000000,2.50000000
3802,175.00000000,175.00000000,1.25000000
3803,190.00000000,175.00000000,2.50000000
3804,190.00000000,162.50000000,2.50000000
3805,182.50000000,175.00000000,2.50000000
3806,190.00000000,175.00000000,1.25000000
3807,200.00000000,175.00000000,2.50000000
3808,200.00000000,162.50000000,2.50000000
3809,195.00000000,175.00000000,2.50000000
3810,200.00000000,175.00000000,1.25000000
3811,210.00000000,175.00000000,2.50000000
3812,210.00000000,162.50000000,2.50000000
3813,205.00000000,175.00000000,2.50000000
3814,210.00000000,175.00000000,1.25000000
3815,225.00000000,175.00000000,2.50000000
3816,225.00000000,162.50000000,2.50000000
3817,217.50000000,175.00000000,2.50000000
3818,225.00000000,175.00000000,1.25000000
3819,250.00000000,175.00000000,2.50000000
3820,250.00000000,162.50000000,2.50000000
3821,237.50000000,175.00000000,2.50000000
3822,250.00000000,175.00000000,1.25000000
3823,275.00000000,175.00000000,2.50000000
3824,275.00000000,162.50000000,2.50000000
3825,262.50000000,175.00000000,2.50000000
3826,275.00000000,175.00000000,1.25000000
3827,290.00000000,175.00000000,2.50000000
3828,290.00000000,162.50000000,2.50000000
3829,282.50000000,175.00000000,2.50000000
3830,290.00000000,175.00000000,1.25000000
3831,300.00000000,175.00000000,2.50000000
3832,300.00000000,162.50000000,2.50000000
3833,295.00000000,175.00000000,2.50000000
3834,300.00000000,175.00000000,1.25000000
3835,310.00000000,175.00000000,2.50000000
3836,310.00000000,162.50000000,2.50000000
3837,305.00000000,175.00000000,2.50000000
3838,310.00000000,175.00000000,1.25000000
3839,325.00000000,175.00000000,2.50000000
3840,325.00000000,162.50000000,2.50000000
3841,317.50000000,175.00000000,2.50000000
3842,325.00000000,175.00000000,1.25000000
3843,350.00000000,175.00000000,2.50000000
3844,350.00000000,162.50000000,2.50000000
3845,337.50000000,175.00000000,2.50000000
3846,350.00000000,175.00000000,1.25000000
3847,375.00000000,175.00000000,2.50000000
3848,375.00000000,162.50000000,2.50000000
3849,362.50000000,175.00000000,2.50000000
3850,375.00000000,175.00000000,1.25000000
3851,400.00000000,175.00000000,2.50000000
3852,400.00000000,162.50000000,2.50000000
3853,387.50000000,175.00000000,2.50000000
3854,400.00000000,175.00000000,1.25000000
3855,25.00000000,200.00000000,2.50000000
3856,0.00000000,200.00000000,2.50000000
3857,25.00000000,187.50000000,2.50000000
3858,12.50000000,200.00000000,2.50000000
3859,0.00000000,187.50000000,2.50000000
3860,25.00000000,200.00000000,1.25000000
3861,0.00000000,200.00000000,1.25000000
3862,50.00000000,200.00000000,2.50000000
3863,50.00000000,187.50000000,2.50000000
3864,37.50000000,200.00000000,2.50000000
3865,50.00000000,200.00000000,1.25000000
3866,75.00000000,200.00000000,2.50000000
3867,75.00000000,187.50000000,2.50000000
3868,62.50000000,200.00000000,2.50000000
3869,75.00000000,200.00000000,1.25000000
3870,100.00000000,200.00000000,2.50000000
3871,100.00000000,187.50000000,2.50000000
3872,87.50000000,200.00000000,2.50000000
3873,100.00000000,200.00000000,1.25000000
3874,125.00000000,200.00000000,2.50000000
3875,125.00000000,187.50000000,2.50000000
3876,112.50000000,200.00000000,2.50000000
3877,125.00000000,200.00000000,1.25000000
3878,150.00000000,200.00000000,2.50000000
3879,150.00000000,187.50000000,2.50000000
3880,137.50000000,200.00000000,2.50000000
3881,150.00000000,200.00000000,1.25000000
3882,175.00000000,200.00000000,2.50000000
3883,175.00000000,187.50000000,2.50000000
3884,162.50000000,200.00000000,2.50000000
3885,175.00000000,200.00000000,1.25000000
3886,190.00000000,200.00000000,2.50000000
3887,190.00000000,187.50000000,2.50000000
3888,182.50000000,200.00000000,2.50000000
3889,190.00000000,200.00000000,1.25000000
3890,200.00000000,200.00000000,2.50000000
3891,200.00000000,187.50000000,2.50000000
3892,195.00000000,200.00000000,2.50000000
3893,200.00000000,200.00000000,1.25000000
3894,210.00000000,200.00000000,2.50000000
3895,210.00000000,187.50000000,2.50000000
3896,205.00000000,200.00000000,2.50000000
3897,210.00000000,200.00000000,1.25000000
3898,225.00000000,200.00000000,2.50000000
3899,225.00000000,187.50000000,2.50000000
3900,217.50000000,200.00000000,2.50000000
3901,225.00000000,200.00000000,1.25000000
3902,250.00000000,200.00000000,2.50000000
3903,250.00000000,187.50000000,2.50000000
3904,237.50000000,200.00000000,2.50000000
3905,250.00000000,200.00000000,1.25000000
3906,275.00000000,200.00000000,2.50000000
3907,275.00000000,187.50000000,2.50000000
3908,262.50000000,200.00000000,2.50000000
3909,275.00000000,200.00000000,1.25000000
3910,290.00000000,200.00000000,2.50000000
3911,290.00000000,187.50000000,2.50000000
3912,282.50000000,200.00000000,2.50000000
3913,290.00000000,200.00000000,1.25000000
3914,300.00000000,200.00000000,2.50000000
3915,300.00000000,187.50000000,2.50000000
3916,295.00000000,200.00000000,2.50000000
3917,300.00000000,200.00000000,1.25000000
3918,310.00000000,200.00000000,2.50000000
3919,310.00000000,187.50000000,2.50000000
3920,305.00000000,200.00000000,2.50000000
3921,310.00000000,200.00000000,1.25000000
3922,325.00000000,200.00000000,2.50000000
3923,325.00000000,187.50000000,2.50000000
3924,317.50000000,200.00000000,2.50000000
3925,325.00000000,200.00000000,1.25000000
3926,350.00000000,200.00000000,2.50000000
3927,350.00000000,187.50000000,2.50000000
3928,337.50000000,200.00000000,2.50000000
3929,350.00000000,200.00000000,1.25000000
3930,375.00000000,200.00000000,2.50000000
3931,375.00000000,187.50000000,2.50000000
3932,362.50000000,200.00000000,2.50000000
3933,375.00000000,200.00000000,1.25000000
3934,400.00000000,200.00000000,2.50000000
3935,400.00000000,187.50000000,2.50000000
3936,387.50000000,200.00000000,2.50000000
3937,400.00000000,200.00000000,1.25000000
3938,25.00000000,225.00000000,2.50000000
3939,0.00000000,225.00000000,2.50000000
3940,25.00000000,212.50000000,2.50000000
3941,12.50000000,225.00000000,2.50000000
3942,0.00000000,212.50000000,2.50000000
3943,25.00000000,225.00000000,1.25000000
3944,0.00000000,225.00000000,1.25000000
3945,50.00000000,225.00000000,2.50000000
3946,50.00000000,212.50000000,2.50000000
3947,37.50000000,225.00000000,2.50000000
3948,50.00000000,225.00000000,1.25000000
3949,75.00000000,225.00000000,2.50000000
3950,75.00000000,212.50000000,2.50000000
3951,62.50000000,225.00000000,2.50000000
3952,75.00000000,225.00000000,1.25000000
3953,100.00000000,225.00000000,2.50000000
3954,100.00000000,212.50000000,2.50000000
3955,87.50000000,225.00000000,2.50000000
3956,100.00000000,225.00000000,1.25000000
3957,125.00000000,225.00000000,2.50000000
3958,125.00000000,212.50000000,2.50000000
3959,112.50000000,225.00000000,2.50000000
3960,125.00000000,225.00000000,1.25000000
3961,150.00000000,225.00000000,2.50000000
3962,150.00000000,212.50000000,2.50000000
3963,137.50000000,225.00000000,2.50000000
3964,150.00000000,225.00000000,1.25000000
3965,175.00000000,225.00000000,2.50000000
3966,175.00000000,212.50000000,2.50000000
3967,162.50000000,225.00000000,2.50000000
3968,175.00000000,225.00000000,1.25000000
3969,190.00000000,225.00000000,2.50000000
3970,190.00000000,212.50000000,2.50000000
3971,182.50000000,225.00000000,2.50000000
3972,190.00000000,225.00000000,1.25000000
3973,200.00000000,225.00000000,2.50000000
3974,200.00000000,212.50000000,2.50000000
3975,195.00000000,225.00000000,2.50000000
3976,200.00000000,225.00000000,1.25000000
3977,210.00000000,225.00000000,2.50000000
3978,210.00000000,212.50000000,2.50000000
3979,205.00000000,225.00000000,2.50000000
3980,210.00000000,225.00000000,1.25000000
3981,225.00000000,225.00000000,2.50000000
3982,225.00000000,212.50000000,2.50000000
3983,217.50000000,225.00000000,2.50000000
3984,225.00000000,225.00000000,1.25000000
3985,250.00000000,225.00000000,2.50000000
3986,250.00000000,212.50000000,2.50000000
3987,237.50000000,225.00000000,2.50000000
3988,250.00000000,225.00000000,1.25000000
3989,275.00000000,225.00000000,2.50000000
3990,275.00000000,212.50000000,2.50000000
3991,262.50000000,225.00000000,2.50000000
3992,275.00000000,225.00000000,1.25000000
3993,290.00000000,225.00000000,2.50000000
3994,290.00000000,212.50000000,2.50000000
3995,282.50000000,225.00000000,2.50000000
3996,290.00000000,225.00000000,1.25000000
3997,300.00000000,225.00000000,2.50000000
3998,300.00000000,212.50000000,2.50000000
3999,295.00000000,225.00000000,2.50000000
4000,300.00000000,225.00000000,1.25000000
4001,310.00000000,225.00000000,2.50000000
4002,310.00000000,212.50000000,2.50000000
4003,305.00000000,225.00000000,2.50000000
4004,310.00000000,225.00000000,1.25000000
4005,325.00000000,225.00000000,2.50000000
4006,325.00000000,212.50000000,2.50000000
4007,317.50000000,225.00000000,2.50000000
4008,325.00000000,225.00000000,1.25000000
4009,350.00000000,225.00000000,2.50000000
4010,350.00000000,212.50000000,2.50000000
4011,337.50000000,225.00000000,2.50000000
4012,350.00000000,225.00000000,1.25000000
4013,375.00000000,225.00000000,2.50000000
4014,375.00000000,212.50000000,2.50000000
4015,362.50000000,225.00000000,2.50000000
4016,375.00000000,225.00000000,1.25000000
4017,400.00000000,225.00000000,2.50000000
4018,400.00000000,212.50000000,2.50000000
4019,387.50000000,225.00000000,2.50000000
4020,400.00000000,225.00000000,1.25000000
4021,25.00000000,250.00000000,2.50000000
4022,0.00000000,250.00000000,2.50000000
4023,25.00000000,237.50000000,2.50000000
4024,12.50000000,250.00000000,2.50000000
4025,0.00000000,237.50000000,2.50000000
4026,25.00000000,250.00000000,1.25000000
4027,0.00000000,250.00000000,1.25000000
4028,50.00000000,250.00000000,2.50000000
4029,50.00000000,237.50000000,2.50000000
4030,37.50000000,250.00000000,2.50000000
4031,50.00000000,250.00000000,1.25000000
4032,75.00000000,250.00000000,2.50000000
4033,75.00000000,237.50000000,2.50000000
4034,62.50000000,250.00000000,2.50000000
4035,75.00000000,250.00000000,1.25000000
4036,100.00000000,250.00000000,2.50000000
4037,100.00000000,237.50000000,2.50000000
4038,87.50000000,250.00000000,2.50000000
4039,100.00000000,250.00000000,1.25000000
4040,125.00000000,250.00000000,2.50000000
4041,125.00000000,237.50000000,2.50000000
4042,112.50000000,250.00000000,2.50000000
4043,125.00000000,250.00000000,1.25000000
4044,150.00000000,250.00000000,2.50000000
4045,150.00000000,237.50000000,2.50000000
4046,137.50000000,250.00000000,2.50000000
4047,150.00000000,250.00000000,1.25000000
4048,175.00000000,250.00000000,2.50000000
4049,175.00000000,237.50000000,2.50000000
4050,162.50000000,250.00000000,2.50000000
4051,175.00000000,250.00000000,1.25000000
4052,190.00000000,250.00000000,2.50000000
4053,190.00000000,237.50000000,2.50000000
4054,182.50000000,250.00000000,2.50000000
4055,190.00000000,250.00000000,1.25000000
4056,200.00000000,250.00000000,2.50000000
4057,200.00000000,237.50000000,2.50000000
4058,195.00000000,250.00000000,2.50000000
4059,200.00000000,250.00000000,1.25000000
4060,210.00000000,250.00000000,2.50000000
4061,210.00000000,237.50000000,2.50000000
4062,205.00000000,250.00000000,2.50000000
4063,210.00000000,250.00000000,1.25000000
4064,225.00000000,250.00000000,2.50000000
4065,225.00000000,237.50000000,2.50000000
4066,217.50000000,250.00000000,2.50000000
4067,225.00000000,250.00000000,1.25000000
4068,250.00000000,250.00000000,2.50000000
4069,250.00000000,237.50000000,2.50000000
4070,237.50000000,250.00000000,2.50000000
4071,250.00000000,250.00000000,1.25000000
4072,275.00000000,250.00000000,2.50000000
4073,275.00000000,237.50000000,2.50000000
4074,262.50000000,250.00000000,2.50000000
4075,275.00000000,250.00000000,1.25000000
4076,290.00000000,250.00000000,2.50000000
4077,290.00000000,237.50000000,2.50000000
4078,282.50000000,250.00000000,2.50000000
4079,290.00000000,250.00000000,1.25000000
4080,300.00000000,250.00000000,2.50000000
4081,300.00000000,237.50000000,2.50000000
4082,295.00000000,250.00000000,2.50000000
4083,300.00000000,250.00000000,1.25000000
4084,310.00000000,250.00000000,2.50000000
4085,310.00000000,237.50000000,2.50000000
4086,305.00000000,250.00000000,2.50000000
4087,310.00000000,250.00000000,1.25000000
4088,325.00000000,250.00000000,2.50000000
4089,325.00000000,237.50000000,2.50000000
4090,317.50000000,250.00000000,2.50000000
4091,325.00000000,250.00000000,1.25000000
4092,350.00000000,250.00000000,2.50000000
4093,350.00000000,237.50000000,2.50000000
4094,337.50000000,250.00000000,2.50000000
4095,350.00000000,250.00000000,1.25000000
4096,375.00000000,250.00000000,2.50000000
4097,375.00000000,237.50000000,2.50000000
4098,362.50000000,250.00000000,2.50000000
4099,375.00000000,250.00000000,1.25000000
4100,400.00000000,250.00000000,2.50000000
4101,400.00000000,237.50000000,2.50000000
4102,387.50000000,250.00000000,2.50000000
4103,400.00000000,250.00000000,1.25000000
4104,25.00000000,275.00000000,2.50000000
4105,0.00000000,275.00000000,2.50000000
4106,25.00000000,262.50000000,2.50000000
4107,12.50000000,275.00000000,2.50000000
4108,0.00000000,262.50000000,2.50000000
4109,25.00000000,275.00000000,1.25000000
4110,0.00000000,275.00000000,1.25000000
4111,50.00000000,275.00000000,2.50000000
4112,50.00000000,262.50000000,2.50000000
4113,37.50000000,275.00000000,2.50000000
4114,50.00000000,275.00000000,1.25000000
4115,75.00000000,275.00000000,2.50000000
4116,75.00000000,262.50000000,2.50000000
4117,62.50000000,275.00000000,2.50000000
4118,75.00000000,275.00000000,1.25000000
4119,100.00000000,275.00000000,2.50000000
4120,100.00000000,262.50000000,2.50000000
4121,87.50000000,275.00000000,2.50000000
4122,100.00000000,275.00000000,1.25000000
4123,125.00000000,275.00000000,2.50000000
4124,125.00000000,262.50000000,2.50000000
4125,112.50000000,275.00000000,2.50000000
4126,125.00000000,275.00000000,1.25000000
4127,150.00000000,275.00000000,2.50000000
4128,150.00000000,262.50000000,2.50000000
4129,137.50000000,275.00000000,2.50000000
4130,150.00000000,275.00000000,1.25000000
4131,175.00000000,275.00000000,2.50000000
4132,175.00000000,262.50000000,2.50000000
4133,162.50000000,275.00000000,2.50000000
4134,175.00000000,275.00000000,1.25000000
4135,190.00000000,275.00000000,2.50000000
4136,190.00000000,262.50000000,2.50000000
4137,182.50000000,275.00000000,2.50000000
4138,190.00000000,275.00000000,1.25000000
4139,200.00000000,275.00000000,2.50000000
4140,200.00000000,262.50000000,2.50000000
4141,195.00000000,275.00000000,2.50000000
4142,200.00000000,275.00000000,1.25000000
4143,210.00000000,275.00000000,2.50000000
4144,210.00000000,262.50000000,2.50000000
4145,205.00000000,275.00000000,2.50000000
4146,210.00000000,275.00000000,1.25000000
4147,225.00000000,275.00000000,2.50000000
4148,225.00000000,262.50000000,2.50000000
4149,217.50000000,275.00000000,2.50000000
4150,225.00000000,275.00000000,1.25000000
4151,250.00000000,275.00000000,2.50000000
4152,250.00000000,262.50000000,2.50000000
4153,237.50000000,275.00000000,2.50000000
4154,250.00000000,275.00000000,1.25000000
4155,275.00000000,275.00000000,2.50000000
4156,275.00000000,262.50000000,2.50000000
4157,262.50000000,275.00000000,2.50000000
4158,275.00000000,275.00000000,1.25000000
4159,290.00000000,275.00000000,2.50000000
4160,290.00000000,262.50000000,2.50000000
4161,282.50000000,275.00000000,2.50000000
4162,290.00000000,275.00000000,1.25000000
4163,300.00000000,275.00000000,2.50000000
4164,300.00000000,262.50000000,2.50000000
4165,295.00000000,275.00000000,2.50000000
4166,300.00000000,275.00000000,1.25000000
4167,310.00000000,275.00000000,2.50000000
4168,310.00000000,262.50000000,2.50000000
4169,305.00000000,275.00000000,2.50000000
4170,310.00000000,275.00000000,1.25000000
4171,325.00000000,275.00000000,2.50000000
4172,325.00000000,262.50000000,2.50000000
4173,317.50000000,275.00000000,2.50000000
4174,325.00000000,275.00000000,1.25000000
4175,350.00000000,275.00000000,2.50000000
4176,350.00000000,262.50000000,2.50000000
4177,337.50000000,275.00000000,2.50000000
4178,350.00000000,275.00000000,1.25000000
4179,375.00000000,275.00000000,2.50000000
4180,375.00000000,262.50000000,2.50000000
4181,362.50000000,275.00000000,2.50000000
4182,375.00000000,275.00000000,1.25000000
4183,400.00000000,275.00000000,2.50000000
4184,400.00000000,262.50000000,2.50000000
4185,387.50000000,275.00000000,2.50000000
4186,400.00000000,275.00000000,1.25000000
4187,25.00000000,300.00000000,2.50000000
4188,0.00000000,300.00000000,2.50000000
4189,25.00000000,287.50000000,2.50000000
4190,12.50000000,300.00000000,2.50000000
4191,0.00000000,287.50000000,2.50000000
4192,25.00000000,300.00000000,1.25000000
4193,0.00000000,300.00000000,1.25000000
4194,50.00000000,300.00000000,2.50000000
4195,50.00000000,287.50000000,2.50000000
4196,37.50000000,300.00000000,2.50000000
4197,50.00000000,300.00000000,1.25000000
4198,75.00000000,300.00000000,2.50000000
4199,75.00000000,287.50000000,2.50000000
4200,62.50000000,300.00000000,2.50000000
4201,75.00000000,300.00000000,1.25000000
4202,100.00000000,300.00000000,2.50000000
4203,100.00000000,287.50000000,2.50000000
4204,87.50000000,300.00000000,2.50000000
4205,100.00000000,300.00000000,1.25000000
4206,125.00000000,300.00000000,2.50000000
4207,125.00000000,287.50000000,2.50000000
4208,112.50000000,300.00000000,2.50000000
4209,125.00000000,300.00000000,1.25000000
4210,150.00000000,300.00000000,2.50000000
4211,150.00000000,287.50000000,2.50000000
4212,137.50000000,300.00000000,2.50000000
4213,150.00000000,300.00000000,1.25000000
4214,175.00000000,300.00000000,2.50000000
4215,175.00000000,287.50000000,2.50000000
4216,162.50000000,300.00000000,2.50000000
4217,175.00000000,300.00000000,1.25000000
4218,190.00000000,300.00000000,2.50000000
4219,190.00000000,287.50000000,2.50000000
4220,182.50000000,300.00000000,2.50000000
4221,190.00000000,300.00000000,1.25000000
4222,200.00000000,300.00000000,2.50000000
4223,200.00000000,287.50000000,2.50000000
4224,195.00000000,300.00000000,2.50000000
4225,200.00000000,300.00000000,1.25000000
4226,210.00000000,300.00000000,2.50000000
4227,210.00000000,287.50000000,2.50000000
4228,205.00000000,300.00000000,2.50000000
4229,210.00000000,300.00000000,1.25000000
4230,225.00000000,300.00000000,2.50000000
4231,225.00000000,287.50000000,2.50000000
4232,217.50000000,300.00000000,2.50000000
4233,225.00000000,300.00000000,1.25000000
4234,250.00000000,300.00000000,2.50000000
4235,250.00000000,287.50000000,2.50000000
4236,237.50000000,300.00000000,2.50000000
4237,250.00000000,300.00000000,1.25000000
4238,275.00000000,300.00000000,2.50000000
4239,275.00000000,287.50000000,2.50000000
4240,262.50000000,300.00000000,2.50000000
4241,275.00000000,300.00000000,1.25000000
4242,290.00000000,300.00000000,2.50000000
4243,290.00000000,287.50000000,2.50000000
4244,282.50000000,300.00000000,2.50000000
4245,290.00000000,300.00000000,1.25000000
4246,300.00000000,300.00000000,2.50000000
4247,300.00000000,287.50000000,2.50000000
4248,295.00000000,300.00000000,2.50000000
4249,300.00000000,300.00000000,1.25000000
4250,310.00000000,300.00000000,2.50000000
4251,310.00000000,287.50000000,2.50000000
4252,305.00000000,300.00000000,2.50000000
4253,310.00000000,300.00000000,1.25000000
4254,325.00000000,300.00000000,2.50000000
4255,325.00000000,287.50000000,2.50000000
4256,317.50000000,300.00000000,2.50000000
4257,325.00000000,300.00000000,1.25000000
4258,350.00000000,300.00000000,2.50000000
4259,350.00000000,287.50000000,2.50000000
4260,337.50000000,300.00000000,2.50000000
4261,350.00000000,300.00000000,1.25000000
4262,375.00000000,300.00000000,2.50000000
4263,375.00000000,287.50000000,2.50000000
4264,362.50000000,300.00000000,2.50000000
4265,375.00000000,300.00000000,1.25000000
4266,400.00000000,300.00000000,2.50000000
4267,400.00000000,287.50000000,2.50000000
4268,387.50000000,300.00000000,2.50000000
4269,400.00000000,300.00000000,1.25000000
*ELEMENT,TYPE=C3D20R,ELSET=SOLID
1,1,2,3,4,5,6,7,8,9,10,11,12,13,14,15
16,17,18,19,20
2,2,21,22,3,6,23,24,7,25,26,27,10,28,29,30
14,18,31,32,19
3,21,33,34,22,23,35,36,24,37,38,39,26,40,41,42
29,31,43,44,32
4,33,45,46,34,35,47,48,36,49,50,51,38,52,53,54
41,43,55,56,44
5,45,57,58,46,47,59,60,48,61,62,63,50,64,65,66
53,55,67,68,56
6,57,69,70,58,59,71,72,60,73,74,75,62,76,77,78
65,67,79,80,68
7,69,81,82,70,71,83,84,72,85,86,87,74,88,89,90
77,79,91,92,80
8,81,93,94,82,83,95,96,84,97,98,99,86,100,101,102
89,91,103,104,92
9,93,105,106,94,95,107,108,96,109,110,111,98,112,113,114
101,103,115,116,104
10,105,117,118,106,107,119,120,108,121,122,123,110,124,125,126
113,115,127,128,116
11,117,129,130,118,119,131,132,120,133,134,135,122,136,137,138
125,127,139,140,128
12,129,141,142,130,131,143,144,132,145,146,147,134,148,149,150
137,139,151,152,140
13,141,153,154,142,143,155,156,144,157,158,159,146,160,161,162
149,151,163,164,152
14,153,165,166,154,155,167,168,156,169,170,171,158,172,173,174
161,163,175,176,164
15,165,177,178,166,167,179,180,168,181,182,183,170,184,185,186
173,175,187,188,176
16,177,189,190,178,179,191,192,180,193,194,195,182,196,197,198
185,187,199,200,188
17,189,201,202,190,191,203,204,192,205,206,207,194,208,209,210
197,199,211,212,200
18,201,213,214,202,203,215,216,204,217,218,219,206,220,221,222
209,211,223,224,212
19,213,225,226,214,215,227,228,216,229,230,231,218,232,233,234
221,223,235,236,224
20,225,237,238,226,227,239,240,228,241,242,243,230,244,245,246
233,235,247,248,236
21,4,3,249,250,8,7,251,252,11,253,254,255,15,256,257
258,20,19,259,260
22,3,22,261,249,7,24,262,251,27,263,264,253,30,265,266
256,19,32,267,259
23,22,34,268,261,24,36,269,262,39,270,271,263,42,272,273
265,32,44,274,267
24,34,46,275,268,36,48,276,269,51,277,278,270,54,279,280
272,44,56,281,274
25,46,58,282,275,48,60,283,276,63,284,285,277,66,286,287
279,56,68,288,281
26,58,70,289,282,60,72,290,283,75,291,292,284,78,293,294
286,68,80,295,288
27,70,82,296,289,72,84,297,290,87,298,299,291,90,300,301
293,80,92,302,295
28,82,94,303,296,84,96,304,297,99,305,306,298,102,307,308
300,92,104,309,302
29,94,106,310,303,96,108,311,304,111,312,313,305,114,314,315
307,104,116,316,309
30,106,118,317,310,108,120,318,311,123,319,320,312,126,321,322
314,116,128,323,316
31,118,130,324,317,120,132,325,318,135,326,327,319,138,328,329
321,128,140,330,323
32,130,142,331,324,132,144,332,325,147,333,334,326,150,335,336
328,140,152,337,330
33,142,154,338,331,144,156,339,332,159,340,341,333,162,342,343
335,152,164,344,337
34,154,166,345,338,156,168,346,339,171,347,348,340,174,349,350
342,164,176,351,344
35,166,178,352,345,168,180,353,346,183,354,355,347,186,356,357
349,176,188,358,351
36,178,190,359,352,180,192,360,353,195,361,362,354,198,363,364
356,188,200,365,358
37,190,202,366,359,192,204,367,360,207,368,369,361,210,370,371
363,200,212,372,365
38,202,214,373,366,204,216,374,367,219,375,376,368,222,377,378
370,212,224,379,372
39,214,226,380,373,216,228,381,374,231,382,383,375,234,384,385
377,224,236,386,379
40,226,238,387,380,228,240,388,381,243,389,390,382,246,391,392
384,236,248,393,386
41,250,249,394,395,252,251,396,397,254,398,399,400,257,401,402
403,260,259,404,405
42,249,261,406,394,251,262,407,396,264,408,409,398,266,410,411
401,259,267,412,404
43,261,268,413,406,262,269,414,407,271,415,416,408,273,417,418
410,267,274,419,412
44,268,275,420,413,269,276,421,414,278,422,423,415,280,424,425
417,274,281,426,419
45,275,282,427,420,276,283,428,421,285,429,430,422,287,431,432
424,281,288,433,426
46,282,289,434,427,283,290,435,428,292,436,437,429,294,438,439
431,288,295,440,433
47,289,296,441,434,290,297,442,435,299,443,444,436,301,445,446
438,295,302,447,440
48,296,303,448,441,297,304,449,442,306,450,451,443,308,452,453
445,302,309,454,447
49,303,310,455,448,304,311,456,449,313,457,458,450,315,459,460
452,309,316,461,454
50,310,317,462,455,311,318,463,456,320,464,465,457,322,466,467
459,316,323,468,461
51,317,324,469,462,318,325,470,463,327,471,472,464,329,473,474
466,323,330,475,468
52,324,331,476,469,325,332,477,470,334,478,479,471,336,480,481
473,330,337,482,475
53,331,338,483,476,332,339,484,477,341,485,486,478,343,487,488
480,337,344,489,482
54,338,345,490,483,339,346,491,484,348,492,493,485,350,494,495
487,344,351,496,489
55,345,352,497,490,346,353,498,491,355,499,500,492,357,501,502
494,351,358,503,496
56,352,359,504,497,353,360,505,498,362,506,507,499,364,508,509
501,358,365,510,503
57,359,366,511,504,360,367,512,505,369,513,514,506,371,515,516
508,365,372,517,510
58,366,373,518,511,367,374,519,512,376,520,521,513,378,522,523
515,372,379,524,517
59,373,380,525,518,374,381,526,519,383,527,528,520,385,529,530
522,379,386,531,524
60,380,387,532,525,381,388,533,526,390,534,535,527,392,536,537
529,386,393,538,531
61,395,394,539,540,397,396,541,542,399,543,544,545,402,546,547
548,405,404,549,550
62,394,406,551,539,396,407,552,541,409,553,554,543,411,555,556
546,404,412,557,549
63,406,413,558,551,407,414,559,552,416,560,561,553,418,562,563
555,412,419,564,557
64,413,420,565,558,414,421,566,559,423,567,568,560,425,569,570
562,419,426,571,564
65,420,427,572,565,421,428,573,566,430,574,575,567,432,576,577
569,426,433,578,571
66,427,434,579,572,428,435,580,573,437,581,582,574,439,583,584
576,433,440,585,578
67,434,441,586,579,435,442,587,580,444,588,589,581,446,590,591
583,440,447,592,585
68,441,448,593,586,442,449,594,587,451,595,596,588,453,597,598
590,447,454,599,592
69,448,455,600,593,449,456,601,594,458,602,603,595,460,604,605
597,454,461,606,599
70,455,462,607,600,456,463,608,601,465,609,610,602,467,611,612
604,461,468,613,606
71,462,469,614,607,463,470,615,608,472,616,617,609,474,618,619
611,468,475,620,613
72,469,476,621,614,470,477,622,615,479,623,624,616,481,625,626
618,475,482,627,620
73,476,483,628,621,477,484,629,622,486,630,631,623,488,632,633
625,482,489,634,627
74,483,490,635,628,484,491,636,629,493,637,638,630,495,639,640
632,489,496,641,634
75,490,497,642,635,491,498,643,636,500,644,645,637,502,646,647
639,496,503,648,641
76,497,504,649,642,498,505,650,643,507,651,652,644,509,653,654
646,503,510,655,648
77,504,511,656,649,505,512,657,650,514,658,659,651,516,660,661
653,510,517,662,655
78,511,518,663,656,512,519,664,657,521,665,666,658,523,667,668
660,517,524,669,662
79,518,525,670,663,519,526,671,664,528,672,673,665,530,674,675
667,524,531,676,669
80,525,532,677,670,526,533,678,671,535,679,680,672,537,681,682
674,531,538,683,676
81,540,539,684,685,542,541,686,687,544,688,689,690,547,691,692
693,550,549,694,695
82,539,551,696,684,541,552,697,686,554,698,699,688,556,700,701
691,549,557,702,694
83,551,558,703,696,552,559,704,697,561,705,706,698,563,707,708
700,557,564,709,702
84,558,565,710,703,559,566,711,704,568,712,713,705,570,714,715
707,564,571,716,709
85,565,572,717,710,566,573,718,711,575,719,720,712,577,721,722
714,571,578,723,716
86,572,579,724,717,573,580,725,718,582,726,727,719,584,728,729
721,578,585,730,723
87,579,586,731,724,580,587,732,725,589,733,734,726,591,735,736
728,585,592,737,730
88,586,593,738,731,587,594,739,732,596,740,741,733,598,742,743
735,592,599,744,737
89,593,600,745,738,594,601,746,739,603,747,748,740,605,749,750
742,599,606,751,744
90,600,607,752,745,601,608,753,746,610,754,755,747,612,756,757
749,606,613,758,751
91,607,614,759,752,608,615,760,753,617,761,762,754,619,763,764
756,613,620,765,758
92,614,621,766,759,615,622,767,760,624,768,769,761,626,770,771
763,620,627,772,765
93,621,628,773,766,622,629,774,767,631,775,776,768,633,777,778
770,627,634,779,772
94,628,635,780,773,629,636,781,774,638,782,783,775,640,784,785
777,634,641,786,779
95,635,642,787,780,636,643,788,781,645,789,790,782,647,791,792
784,641,648,793,786
96,642,649,794,787,643,650,795,788,652,796,797,789,654,798,799
791,648,655,800,793
97,649,656,801,794,650,657,802,795,659,803,804,796,661,805,806
798,655,662,807,800
98,656,663,808,801,657,664,809,802,666,810,811,803,668,812,813
805,662,669,814,807
99,663,670,815,808,664,671,816,809,673,817,818,810,675,819,820
812,669,676,821,814
100,670,677,822,815,671,678,823,816,680,824,825,817,682,826,827
819,676,683,828,821
101,685,684,829,830,687,686,831,832,689,833,834,835,692,836,837
838,695,694,839,840
102,684,696,841,829,686,697,842,831,699,843,844,833,701,845,846
836,694,702,847,839
103,696,703,848,841,697,704,849,842,706,850,851,843,708,852,853
845,702,709,854,847
104,703,710,855,848,704,711,856,849,713,857,858,850,715,859,860
852,709,716,861,854
105,710,717,862,855,711,718,863,856,720,864,865,857,722,866,867
859,716,723,868,861
106,717,724,869,862,718,725,870,863,727,871,872,864,729,873,874
866,723,730,875,868
107,724,731,876,869,725,732,877,870,734,878,879,871,736,880,881
873,730,737,882,875
108,731,738,883,876,732,739,884,877,741,885,886,878,743,887,888
880,737,744,889,882
109,738,745,890,883,739,746,891,884,748,892,893,885,750,894,895
887,744,751,896,889
110,745,752,897,890,746,753,898,891,755,899,900,892,757,901,902
894,751,758,903,896
111,752,759,904,897,753,760,905,898,762,906,907,899,764,908,909
901,758,765,910,903
112,759,766,911,904,760,767,912,905,769,913,914,906,771,915,916
908,765,772,917,910
113,766,773,918,911,767,774,919,912,776,920,921,913,778,922,923
915,772,779,924,917
114,773,780,925,918,774,781,926,919,783,927,928,920,785,929,930
922,779,786,931,924
115,780,787,932,925,781,788,933,926,790,934,935,927,792,936,937
929,786,793,938,931
116,787,794,939,932,788,795,940,933,797,941,942,934,799,943,944
936,793,800,945,938
117,794,801,946,939,795,802,947,940,804,948,949,941,806,950,951
943,800,807,952,945
118,801,808,953,946,802,809,954,947,811,955,956,948,813,957,958
950,807,814,959,952
119,808,815,960,953,809,816,961,954,818,962,963,955,820,964,965
957,814,821,966,959
120,815,822,967,960,816,823,968,961,825,969,970,962,827,971,972
964,821,828,973,966
121,830,829,974,975,832,831,976,977,834,978,979,980,837,981,982
983,840,839,984,985
122,829,841,986,974,831,842,987,976,844,988,989,978,846,990,991
981,839,847,992,984
123,841,848,993,986,842,849,994,987,851,995,996,988,853,997,998
990,847,854,999,992
124,848,855,1000,993,849,856,1001,994,858,1002,1003,995,860,1004,1005
997,854,861,1006,999
125,855,862,1007,1000,856,863,1008,1001,865,1009,1010,1002,867,1011,1012
1004,861,868,1013,1006
126,862,869,1014,1007,863,870,1015,1008,872,1016,1017,1009,874,1018,1019
1011,868,875,1020,1013
127,869,876,1021,1014,870,877,1022,1015,879,1023,1024,1016,881,1025,1026
1018,875,882,1027,1020
128,876,883,1028,1021,877,884,1029,1022,886,1030,1031,1023,888,1032,1033
1025,882,889,1034,1027
129,883,890,1035,1028,884,891,1036,1029,893,1037,1038,1030,895,1039,1040
1032,889,896,1041,1034
130,890,897,1042,1035,891,898,1043,1036,900,1044,1045,1037,902,1046,1047
1039,896,903,1048,1041
131,897,904,1049,1042,898,905,1050,1043,907,1051,1052,1044,909,1053,1054
1046,903,910,1055,1048
132,904,911,1056,1049,905,912,1057,1050,914,1058,1059,1051,916,1060,1061
1053,910,917,1062,1055
133,911,918,1063,1056,912,919,1064,1057,921,1065,1066,1058,923,1067,1068
1060,917,924,1069,1062
134,918,925,1070,1063,919,926,1071,1064,928,1072,1073,1065,930,1074,1075
1067,924,931,1076,1069
135,925,932,1077,1070,926,933,1078,1071,935,1079,1080,1072,937,1081,1082
1074,931,938,1083,1076
136,932,939,1084,1077,933,940,1085,1078,942,1086,1087,1079,944,1088,1089
1081,938,945,1090,1083
137,939,946,1091,1084,940,947,1092,1085,949,1093,1094,1086,951,1095,1096
1088,945,952,1097,1090
138,946,953,1098,1091,947,954,1099,1092,956,1100,1101,1093,958,1102,1103
1095,952,959,1104,1097
139,953,960,1105,1098,954,961,1106,1099,963,1107,1108,1100,965,1109,1110
1102,959,966,1111,1104
140,960,967,1112,1105,961,968,1113,1106,970,1114,1115,1107,972,1116,1117
1109,966,973,1118,1111
141,975,974,1119,1120,977,976,1121,1122,979,1123,1124,1125,982,1126,1127
1128,985,984,1129,1130
142,974,986,1131,1119,976,987,1132,1121,989,1133,1134,1123,991,1135,1136
1126,984,992,1137,1129
143,986,993,1138,1131,987,994,1139,1132,996,1140,1141,1133,998,1142,1143
1135,992,999,1144,1137
144,993,1000,1145,1138,994,1001,1146,1139,1003,1147,1148,1140,1005,1149,1150
1142,999,1006,1151,1144
145,1000,1007,1152,1145,1001,1008,1153,1146,1010,1154,1155,1147,1012,1156,1157
1149,1006,1013,1158,1151
146,1007,1014,1159,1152,1008,1015,1160,1153,1017,1161,1162,1154,1019,1163,1164
1156,1013,1020,1165,1158
147,1014,1021,1166,1159,1015,1022,1167,1160,1024,1168,1169,1161,1026,1170,1171
1163,1020,1027,1172,1165
148,1021,1028,1173,1166,1022,1029,1174,1167,1031,1175,1176,1168,1033,1177,1178
1170,1027,1034,1179,1172
149,1028,1035,1180,1173,1029,1036,1181,1174,1038,1182,1183,1175,1040,1184,1185
1177,1034,1041,1186,1179
150,1035,1042,1187,1180,1036,1043,1188,1181,1045,1189,1190,1182,1047,1191,1192
1184,1041,1048,1193,1186
151,1042,1049,1194,1187,1043,1050,1195,1188,1052,1196,1197,1189,1054,1198,1199
1191,1048,1055,1200,1193
152,1049,1056,1201,1194,1050,1057,1202,1195,1059,1203,1204,1196,1061,1205,1206
1198,1055,1062,1207,1200
153,1056,1063,1208,1201,1057,1064,1209,1202,1066,1210,1211,1203,1068,1212,1213
1205,1062,1069,1214,1207
154,1063,1070,1215,1208,1064,1071,1216,1209,1073,1217,1218,1210,1075,1219,1220
1212,1069,1076,1221,1214
155,1070,1077,1222,1215,1071,1078,1223,1216,1080,1224,1225,1217,1082,1226,1227
1219,1076,1083,1228,1221
156,1077,1084,1229,1222,1078,1085,1230,1223,1087,1231,1232,1224,1089,1233,1234
1226,1083,1090,1235,1228
157,1084,1091,1236,1229,1085,1092,1237,1230,1094,1238,1239,1231,1096,1240,1241
1233,1090,1097,1242,1235
158,1091,1098,1243,1236,1092,1099,1244,1237,1101,1245,1246,1238,1103,1247,1248
1240,1097,1104,1249,1242
159,1098,1105,1250,1243,1099,1106,1251,1244,1108,1252,1253,1245,1110,1254,1255
1247,1104,1111,1256,1249
160,1105,1112,1257,1250,1106,1113,1258,1251,1115,1259,1260,1252,1117,1261,1262
1254,1111,1118,1263,1256
161,1120,1119,1264,1265,1122,1121,1266,1267,1124,1268,1269,1270,1127,1271,1272
1273,1130,1129,1274,1275
162,1119,1131,1276,1264,1121,1132,1277,1266,1134,1278,1279,1268,1136,1280,1281
1271,1129,1137,1282,1274
163,1131,1138,1283,1276,1132,1139,1284,1277,1141,1285,1286,1278,1143,1287,1288
1280,1137,1144,1289,1282
164,1138,1145,1290,1283,1139,1146,1291,1284,1148,1292,1293,1285,1150,1294,1295
1287,1144,1151,1296,1289
165,1145,1152,1297,1290,1146,1153,1298,1291,1155,1299,1300,1292,1157,1301,1302
1294,1151,1158,1303,1296
166,1152,1159,1304,1297,1153,1160,1305,1298,1162,1306,1307,1299,1164,1308,1309
1301,1158,1165,1310,1303
167,1159,1166,1311,1304,1160,1167,1312,1305,1169,1313,1314,1306,1171,1315,1316
1308,1165,1172,1317,1310
168,1166,1173,1318,1311,1167,1174,1319,1312,1176,1320,1321,1313,1178,1322,1323
1315,1172,1179,1324,1317
169,1173,1180,1325,1318,1174,1181,1326,1319,1183,1327,1328,1320,1185,1329,1330
1322,1179,1186,1331,1324
170,1180,1187,1332,1325,1181,1188,1333,1326,1190,1334,1335,1327,1192,1336,1337
1329,1186,1193,1338,1331
171,1187,1194,1339,1332,1188,1195,1340,1333,1197,1341,1342,1334,1199,1343,1344
1336,1193,1200,1345,1338
172,1194,1201,1346,1339,1195,1202,1347,1340,1204,1348,1349,1341,1206,1350,1351
1343,1200,1207,1352,1345
173,1201,1208,1353,1346,1202,1209,1354,1347,1211,1355,1356,1348,1213,1357,1358
1350,1207,1214,1359,1352
174,1208,1215,1360,1353,1209,1216,1361,1354,1218,1362,1363,1355,1220,1364,1365
1357,1214,1221,1366,1359
175,1215,1222,1367,1360,1216,1223,1368,1361,1225,1369,1370,1362,1227,1371,1372
1364,1221,1228,1373,1366
176,1222,1229,1374,1367,1223,1230,1375,1368,1232,1376,1377,1369,1234,1378,1379
1371,1228,1235,1380,1373
177,1229,1236,1381,1374,1230,1237,1382,1375,1239,1383,1384,1376,1241,1385,1386
1378,1235,1242,1387,1380
178,1236,1243,1388,1381,1237,1244,1389,1382,1246,1390,1391,1383,1248,1392,1393
1385,1242,1249,1394,1387
179,1243,1250,1395,1388,1244,1251,1396,1389,1253,1397,1398,1390,1255,1399,1400
1392,1249,1256,1401,1394
180,1250,1257,1402,1395,1251,1258,1403,1396,1260,1404,1405,1397,1262,1406,1407
1399,1256,1263,1408,1401
181,1265,1264,1409,1410,1267,1266,1411,1412,1269,1413,1414,1415,1272,1416,1417
1418,1275,1274,1419,1420
182,1264,1276,1421,1409,1266,1277,1422,1411,1279,1423,1424,1413,1281,1425,1426
1416,1274,1282,1427,1419
183,1276,1283,1428,1421,1277,1284,1429,1422,1286,1430,1431,1423,1288,1432,1433
1425,1282,1289,1434,1427
184,1283,1290,1435,1428,1284,1291,1436,1429,1293,1437,1438,1430,1295,1439,1440
1432,1289,1296,1441,1434
185,1290,1297,1442,1435,1291,1298,1443,1436,1300,1444,1445,1437,1302,1446,1447
1439,1296,1303,1448,1441
186,1297,1304,1449,1442,1298,1305,1450,1443,1307,1451,1452,1444,1309,1453,1454
1446,1303,1310,1455,1448
187,1304,1311,1456,1449,1305,1312,1457,1450,1314,1458,1459,1451,1316,1460,1461
1453,1310,1317,1462,1455
188,1311,1318,1463,1456,1312,1319,1464,1457,1321,1465,1466,1458,1323,1467,1468
1460,1317,1324,1469,1462
189,1318,1325,1470,1463,1319,1326,1471,1464,1328,1472,1473,1465,1330,1474,1475
1467,1324,1331,1476,1469
190,1325,1332,1477,1470,1326,1333,1478,1471,1335,1479,1480,1472,1337,1481,1482
1474,1331,1338,1483,1476
191,1332,1339,1484,1477,1333,1340,1485,1478,1342,1486,1487,1479,1344,1488,1489
1481,1338,1345,1490,1483
192,1339,1346,1491,1484,1340,1347,1492,1485,1349,1493,1494,1486,1351,1495,1496
1488,1345,1352,1497,1490
193,1346,1353,1498,1491,1347,1354,1499,1492,1356,1500,1501,1493,1358,1502,1503
1495,1352,1359,1504,1497
194,1353,1360,1505,1498,1354,1361,1506,1499,1363,1507,1508,1500,1365,1509,1510
1502,1359,1366,1511,1504
195,1360,1367,1512,1505,1361,1368,1513,1506,1370,1514,1515,1507,1372,1516,1517
1509,1366,1373,1518,1511
196,1367,1374,1519,1512,1368,1375,1520,1513,1377,1521,1522,1514,1379,1523,1524
1516,1373,1380,1525,1518
197,1374,1381,1526,1519,1375,1382,1527,1520,1384,1528,1529,1521,1386,1530,1531
1523,1380,1387,1532,1525
198,1381,1388,1533,1526,1382,1389,1534,1527,1391,1535,1536,1528,1393,1537,1538
1530,1387,1394,1539,1532
199,1388,1395,1540,1533,1389,1396,1541,1534,1398,1542,1543,1535,1400,1544,1545
1537,1394,1401,1546,1539
200,1395,1402,1547,1540,1396,1403,1548,1541,1405,1549,1550,1542,1407,1551,1552
1544,1401,1408,1553,1546
201,1410,1409,1554,1555,1412,1411,1556,1557,1414,1558,1559,1560,1417,1561,1562
1563,1420,1419,1564,1565
202,1409,1421,1566,1554,1411,1422,1567,1556,1424,1568,1569,1558,1426,1570,1571
1561,1419,1427,1572,1564
203,1421,1428,1573,1566,1422,1429,1574,1567,1431,1575,1576,1568,1433,1577,1578
1570,1427,1434,1579,1572
204,1428,1435,1580,1573,1429,1436,1581,1574,1438,1582,1583,1575,1440,1584,1585
1577,1434,1441,1586,1579
205,1435,1442,1587,1580,1436,1443,1588,1581,1445,1589,1590,1582,1447,1591,1592
1584,1441,1448,1593,1586
206,1442,1449,1594,1587,1443,1450,1595,1588,1452,1596,1597,1589,1454,1598,1599
1591,1448,1455,1600,1593
207,1449,1456,1601,1594,1450,1457,1602,1595,1459,1603,1604,1596,1461,1605,1606
1598,1455,1462,1607,1600
208,1456,1463,1608,1601,1457,1464,1609,1602,1466,1610,1611,1603,1468,1612,1613
1605,1462,1469,1614,1607
209,1463,1470,1615,1608,1464,1471,1616,1609,1473,1617,1618,1610,1475,1619,1620
1612,1469,1476,1621,1614
210,1470,1477,1622,1615,1471,1478,1623,1616,1480,1624,1625,1617,1482,1626,1627
1619,1476,1483,1628,1621
211,1477,1484,1629,1622,1478,1485,1630,1623,1487,1631,1632,1624,1489,1633,1634
1626,1483,1490,1635,1628
212,1484,1491,1636,1629,1485,1492,1637,1630,1494,1638,1639,1631,1496,1640,1641
1633,1490,1497,1642,1635
213,1491,1498,1643,1636,1492,1499,1644,1637,1501,1645,1646,1638,1503,1647,1648
1640,1497,1504,1649,1642
214,1498,1505,1650,1643,1499,1506,1651,1644,1508,1652,1653,1645,1510,1654,1655
1647,1504,1511,1656,1649
215,1505,1512,1657,1650,1506,1513,1658,1651,1515,1659,1660,1652,1517,1661,1662
1654,1511,1518,1663,1656
216,1512,1519,1664,1657,1513,1520,1665,1658,1522,1666,1667,1659,1524,1668,1669
1661,1518,1525,1670,1663
217,1519,1526,1671,1664,1520,1527,1672,1665,1529,1673,1674,1666,1531,1675,1676
1668,1525,1532,1677,1670
218,1526,1533,1678,1671,1527,1534,1679,1672,1536,1680,1681,1673,1538,1682,1683
1675,1532,1539,1684,1677
219,1533,1540,1685,1678,1534,1541,1686,1679,1543,1687,1688,1680,1545,1689,1690
1682,1539,1546,1691,1684
220,1540,1547,1692,1685,1541,1548,1693,1686,1550,1694,1695,1687,1552,1696,1697
1689,1546,1553,1698,1691
221,1555,1554,1699,1700,1557,1556,1701,1702,1559,1703,1704,1705,1562,1706,1707
1708,1565,1564,1709,1710
222,1554,1566,1711,1699,1556,1567,1712,1701,1569,1713,1714,1703,1571,1715,1716
1706,1564,1572,1717,1709
223,1566,1573,1718,1711,1567,1574,1719,1712,1576,1720,1721,1713,1578,1722,1723
1715,1572,1579,1724,1717
224,1573,1580,1725,1718,1574,1581,1726,1719,1583,1727,1728,1720,1585,1729,1730
1722,1579,1586,1731,1724
225,1580,1587,1732,1725,1581,1588,1733,1726,1590,1734,1735,1727,1592,1736,1737
1729,1586,1593,1738,1731
226,1587,1594,1739,1732,1588,1595,1740,1733,1597,1741,1742,1734,1599,1743,1744
1736,1593,1600,1745,1738
227,1594,1601,1746,1739,1595,1602,1747,1740,1604,1748,1749,1741,1606,1750,1751
1743,1600,1607,1752,1745
228,1601,1608,1753,1746,1602,1609,1754,1747,1611,1755,1756,1748,1613,1757,1758
1750,1607,1614,1759,1752
229,1608,1615,1760,1753,1609,1616,1761,1754,1618,1762,1763,1755,1620,1764,1765
1757,1614,1621,1766,1759
230,1615,1622,1767,1760,1616,1623,1768,1761,1625,1769,1770,1762,1627,1771,1772
1764,1621,1628,1773,1766
231,1622,1629,1774,1767,1623,1630,1775,1768,1632,1776,1777,1769,1634,1778,1779
1771,1628,1635,1780,1773
232,1629,1636,1781,1774,1630,1637,1782,1775,1639,1783,1784,1776,1641,1785,1786
1778,1635,1642,1787,1780
233,1636,1643,1788,1781,1637,1644,1789,1782,1646,1790,1791,1783,1648,1792,1793
1785,1642,1649,1794,1787
234,1643,1650,1795,1788,1644,1651,1796,1789,1653,1797,1798,1790,1655,1799,1800
1792,1649,1656,1801,1794
235,1650,1657,1802,1795,1651,1658,1803,1796,1660,1804,1805,1797,1662,1806,1807
1799,1656,1663,1808,1801
236,1657,1664,1809,1802,1658,1665,1810,1803,1667,1811,1812,1804,1669,1813,1814
1806,1663,1670,1815,1808
237,1664,1671,1816,1809,1665,1672,1817,1810,1674,1818,1819,1811,1676,1820,1821
1813,1670,1677,1822,1815
238,1671,1678,1823,1816,1672,1679,1824,1817,1681,1825,1826,1818,1683,1827,1828
1820,1677,1684,1829,1822
239,1678,1685,1830,1823,1679,1686,1831,1824,1688,1832,1833,1825,1690,1834,1835
1827,1684,1691,1836,1829
240,1685,1692,1837,1830,1686,1693,1838,1831,1695,1839,1840,1832,1697,1841,1842
1834,1691,1698,1843,1836
241,1700,1699,1844,1845,1702,1701,1846,1847,1704,1848,1849,1850,1707,1851,1852
1853,1710,1709,1854,1855
242,1699,1711,1856,1844,1701,1712,1857,1846,1714,1858,1859,1848,1716,1860,1861
1851,1709,1717,1862,1854
243,1711,1718,1863,1856,1712,1719,1864,1857,1721,1865,1866,1858,1723,1867,1868
1860,1717,1724,1869,1862
244,1718,1725,1870,1863,1719,1726,1871,1864,1728,1872,1873,1865,1730,1874,1875
1867,1724,1731,1876,1869
245,1725,1732,1877,1870,1726,1733,1878,1871,1735,1879,1880,1872,1737,1881,1882
1874,1731,1738,1883,1876
246,1732,1739,1884,1877,1733,1740,1885,1878,1742,1886,1887,1879,1744,1888,1889
1881,1738,1745,1890,1883
247,1739,1746,1891,1884,1740,1747,1892,1885,1749,1893,1894,1886,1751,1895,1896
1888,1745,1752,1897,1890
248,1746,1753,1898,1891,1747,1754,1899,1892,1756,1900,1901,1893,1758,1902,1903
1895,1752,1759,1904,1897
249,1753,1760,1905,1898,1754,1761,1906,1899,1763,1907,1908,1900,1765,1909,1910
1902,1759,1766,1911,1904
250,1760,1767,1912,1905,1761,1768,1913,1906,1770,1914,1915,1907,1772,1916,1917
1909,1766,1773,1918,1911
251,1767,1774,1919,1912,1768,1775,1920,1913,1777,1921,1922,1914,1779,1923,1924
1916,1773,1780,1925,1918
252,1774,1781,1926,1919,1775,1782,1927,1920,1784,1928,1929,1921,1786,1930,1931
1923,1780,1787,1932,1925
253,1781,1788,1933,1926,1782,1789,1934,1927,1791,1935,1936,1928,1793,1937,1938
1930,1787,1794,1939,1932
254,1788,1795,1940,1933,1789,1796,1941,1934,1798,1942,1943,1935,1800,1944,1945
1937,1794,1801,1946,1939
255,1795,1802,1947,1940,1796,1803,1948,1941,1805,1949,1950,1942,1807,1951,1952
1944,1801,1808,1953,1946
256,1802,1809,1954,1947,1803,1810,1955,1948,1812,1956,1957,1949,1814,1958,1959
1951,1808,1815,1960,1953
257,1809,1816,1961,1954,1810,1817,1962,1955,1819,1963,1964,1956,1821,1965,1966
1958,1815,1822,1967,1960
258,1816,1823,1968,1961,1817,1824,1969,1962,1826,1970,1971,1963,1828,1972,1973
1965,1822,1829,1974,1967
259,1823,1830,1975,1968,1824,1831,1976,1969,1833,1977,1978,1970,1835,1979,1980
1972,1829,1836,1981,1974
260,1830,1837,1982,1975,1831,1838,1983,1976,1840,1984,1985,1977,1842,1986,1987
1979,1836,1843,1988,1981
261,1845,1844,1989,1990,1847,1846,1991,1992,1849,1993,1994,1995,1852,1996,1997
1998,1855,1854,1999,2000
262,1844,1856,2001,1989,1846,1857,2002,1991,1859,2003,2004,1993,1861,2005,2006
1996,1854,1862,2007,1999
263,1856,1863,2008,2001,1857,1864,2009,2002,1866,2010,2011,2003,1868,2012,2013
2005,1862,1869,2014,2007
264,1863,1870,2015,2008,1864,1871,2016,2009,1873,2017,2018,2010,1875,2019,2020
2012,1869,1876,2021,2014
265,1870,1877,2022,2015,1871,1878,2023,2016,1880,2024,2025,2017,1882,2026,2027
2019,1876,1883,2028,2021
266,1877,1884,2029,2022,1878,1885,2030,2023,1887,2031,2032,2024,1889,2033,2034
2026,1883,1890,2035,2028
267,1884,1891,2036,2029,1885,1892,2037,2030,1894,2038,2039,2031,1896,2040,2041
2033,1890,1897,2042,2035
268,1891,1898,2043,2036,1892,1899,2044,2037,1901,2045,2046,2038,1903,2047,2048
2040,1897,1904,2049,2042
269,1898,1905,2050,2043,1899,1906,2051,2044,1908,2052,2053,2045,1910,2054,2055
2047,1904,1911,2056,2049
270,1905,1912,2057,2050,1906,1913,2058,2051,1915,2059,2060,2052,1917,2061,2062
2054,1911,1918,2063,2056
271,1912,1919,2064,2057,1913,1920,2065,2058,1922,2066,2067,2059,1924,2068,2069
2061,1918,1925,2070,2063
272,1919,1926,2071,2064,1920,1927,2072,2065,1929,2073,2074,2066,1931,2075,2076
2068,1925,1932,2077,2070
273,1926,1933,2078,2071,1927,1934,2079,2072,1936,2080,2081,2073,1938,2082,2083
2075,1932,1939,2084,2077
274,1933,1940,2085,2078,1934,1941,2086,2079,1943,2087,2088,2080,1945,2089,2090
2082,1939,1946,2091,2084
275,1940,1947,2092,2085,1941,1948,2093,2086,1950,2094,2095,2087,1952,2096,2097
2089,1946,1953,2098,2091
276,1947,1954,2099,2092,1948,1955,2100,2093,1957,2101,2102,2094,1959,2103,2104
2096,1953,1960,2105,2098
277,1954,1961,2106,2099,1955,1962,2107,2100,1964,2108,2109,2101,1966,2110,2111
2103,1960,1967,2112,2105
278,1961,1968,2113,2106,1962,1969,2114,2107,1971,2115,2116,2108,1973,2117,2118
2110,1967,1974,2119,2112
279,1968,1975,2120,2113,1969,1976,2121,2114,1978,2122,2123,2115,1980,2124,2125
2117,1974,1981,2126,2119
280,1975,1982,2127,2120,1976,1983,2128,2121,1985,2129,2130,2122,1987,2131,2132
2124,1981,1988,2133,2126
281,1990,1989,2134,2135,1992,1991,2136,2137,1994,2138,2139,2140,1997,2141,2142
2143,2000,1999,2144,2145
282,1989,2001,2146,2134,1991,2002,2147,2136,2004,2148,2149,2138,2006,2150,2151
2141,1999,2007,2152,2144
283,2001,2008,2153,2146,2002,2009,2154,2147,2011,2155,2156,2148,2013,2157,2158
2150,2007,2014,2159,2152
284,2008,2015,2160,2153,2009,2016,2161,2154,2018,2162,2163,2155,2020,2164,2165
2157,2014,2021,2166,2159
285,2015,2022,2167,2160,2016,2023,2168,2161,2025,2169,2170,2162,2027,2171,2172
2164,2021,2028,2173,2166
286,2022,2029,2174,2167,2023,2030,2175,2168,2032,2176,2177,2169,2034,2178,2179
2171,2028,2035,2180,2173
287,2029,2036,2181,2174,2030,2037,2182,2175,2039,2183,2184,2176,2041,2185,2186
2178,2035,2042,2187,2180
288,2036,2043,2188,2181,2037,2044,2189,2182,2046,2190,2191,2183,2048,2192,2193
2185,2042,2049,2194,2187
289,2043,2050,2195,2188,2044,2051,2196,2189,2053,2197,2198,2190,2055,2199,2200
2192,2049,2056,2201,2194
290,2050,2057,2202,2195,2051,2058,2203,2196,2060,2204,2205,2197,2062,2206,2207
2199,2056,2063,2208,2201
291,2057,2064,2209,2202,2058,2065,2210,2203,2067,2211,2212,2204,2069,2213,2214
2206,2063,2070,2215,2208
292,2064,2071,2216,2209,2065,2072,2217,2210,2074,2218,2219,2211,2076,2220,2221
2213,2070,2077,2222,2215
293,2071,2078,2223,2216,2072,2079,2224,2217,2081,2225,2226,2218,2083,2227,2228
2220,2077,2084,2229,2222
294,2078,2085,2230,2223,2079,2086,2231,2224,2088,2232,2233,2225,2090,2234,2235
2227,2084,2091,2236,2229
295,2085,2092,2237,2230,2086,2093,2238,2231,2095,2239,2240,2232,2097,2241,2242
2234,2091,2098,2243,2236
296,2092,2099,2244,2237,2093,2100,2245,2238,2102,2246,2247,2239,2104,2248,2249
2241,2098,2105,2250,2243
297,2099,2106,2251,2244,2100,2107,2252,2245,2109,2253,2254,2246,2111,2255,2256
2248,2105,2112,2257,2250
298,2106,2113,2258,2251,2107,2114,2259,2252,2116,2260,2261,2253,2118,2262,2263
2255,2112,2119,2264,2257
299,2113,2120,2265,2258,2114,2121,2266,2259,2123,2267,2268,2260,2125,2269,2270
2262,2119,2126,2271,2264
300,2120,2127,2272,2265,2121,2128,2273,2266,2130,2274,2275,2267,2132,2276,2277
2269,2126,2133,2278,2271
301,2135,2134,2279,2280,2137,2136,2281,2282,2139,2283,2284,2285,2142,2286,2287
2288,2145,2144,2289,2290
302,2134,2146,2291,2279,2136,2147,2292,2281,2149,2293,2294,2283,2151,2295,2296
2286,2144,2152,2297,2289
303,2146,2153,2298,2291,2147,2154,2299,2292,2156,2300,2301,2293,2158,2302,2303
2295,2152,2159,2304,2297
304,2153,2160,2305,2298,2154,2161,2306,2299,2163,2307,2308,2300,2165,2309,2310
2302,2159,2166,2311,2304
305,2160,2167,2312,2305,2161,2168,2313,2306,2170,2314,2315,2307,2172,2316,2317
2309,2166,2173,2318,2311
306,2167,2174,2319,2312,2168,2175,2320,2313,2177,2321,2322,2314,2179,2323,2324
2316,2173,2180,2325,2318
307,2174,2181,2326,2319,2175,2182,2327,2320,2184,2328,2329,2321,2186,2330,2331
2323,2180,2187,2332,2325
308,2181,2188,2333,2326,2182,2189,2334,2327,2191,2335,2336,2328,2193,2337,2338
2330,2187,2194,2339,2332
309,2188,2195,2340,2333,2189,2196,2341,2334,2198,2342,2343,2335,2200,2344,2345
2337,2194,2201,2346,2339
310,2195,2202,2347,2340,2196,2203,2348,2341,2205,2349,2350,2342,2207,2351,2352
2344,2201,2208,2353,2346
311,2202,2209,2354,2347,2203,2210,2355,2348,2212,2356,2357,2349,2214,2358,2359
2351,2208,2215,2360,2353
312,2209,2216,2361,2354,2210,2217,2362,2355,2219,2363,2364,2356,2221,2365,2366
2358,2215,2222,2367,2360
313,2216,2223,2368,2361,2217,2224,2369,2362,2226,2370,2371,2363,2228,2372,2373
2365,2222,2229,2374,2367
314,2223,2230,2375,2368,2224,2231,2376,2369,2233,2377,2378,2370,2235,2379,2380
2372,2229,2236,2381,2374
315,2230,2237,2382,2375,2231,2238,2383,2376,2240,2384,2385,2377,2242,2386,2387
2379,2236,2243,2388,2381
316,2237,2244,2389,2382,2238,2245,2390,2383,2247,2391,2392,2384,2249,2393,2394
2386,2243,2250,2395,2388
317,2244,2251,2396,2389,2245,2252,2397,2390,2254,2398,2399,2391,2256,2400,2401
2393,2250,2257,2402,2395
318,2251,2258,2403,2396,2252,2259,2404,2397,2261,2405,2406,2398,2263,2407,2408
2400,2257,2264,2409,2402
319,2258,2265,2410,2403,2259,2266,2411,2404,2268,2412,2413,2405,2270,2414,2415
2407,2264,2271,2416,2409
320,2265,2272,2417,2410,2266,2273,2418,2411,2275,2419,2420,2412,2277,2421,2422
2414,2271,2278,2423,2416
321,2280,2279,2424,2425,2282,2281,2426,2427,2284,2428,2429,2430,2287,2431,2432
2433,2290,2289,2434,2435
322,2279,2291,2436,2424,2281,2292,2437,2426,2294,2438,2439,2428,2296,2440,2441
2431,2289,2297,2442,2434
323,2291,2298,2443,2436,2292,2299,2444,2437,2301,2445,2446,2438,2303,2447,2448
2440,2297,2304,2449,2442
324,2298,2305,2450,2443,2299,2306,2451,2444,2308,2452,2453,2445,2310,2454,2455
2447,2304,2311,2456,2449
325,2305,2312,2457,2450,2306,2313,2458,2451,2315,2459,2460,2452,2317,2461,2462
2454,2311,2318,2463,2456
326,2312,2319,2464,2457,2313,2320,2465,2458,2322,2466,2467,2459,2324,2468,2469
2461,2318,2325,2470,2463
327,2319,2326,2471,2464,2320,2327,2472,2465,2329,2473,2474,2466,2331,2475,2476
2468,2325,2332,2477,2470
328,2326,2333,2478,2471,2327,2334,2479,2472,2336,2480,2481,2473,2338,2482,2483
2475,2332,2339,2484,2477
329,2333,2340,2485,2478,2334,2341,2486,2479,2343,2487,2488,2480,2345,2489,2490
2482,2339,2346,2491,2484
330,2340,2347,2492,2485,2341,2348,2493,2486,2350,2494,2495,2487,2352,2496,2497
2489,2346,2353,2498,2491
331,2347,2354,2499,2492,2348,2355,2500,2493,2357,2501,2502,2494,2359,2503,2504
2496,2353,2360,2505,2498
332,2354,2361,2506,2499,2355,2362,2507,2500,2364,2508,2509,2501,2366,2510,2511
2503,2360,2367,2512,2505
333,2361,2368,2513,2506,2362,2369,2514,2507,2371,2515,2516,2508,2373,2517,2518
2510,2367,2374,2519,2512
334,2368,2375,2520,2513,2369,2376,2521,2514,2378,2522,2523,2515,2380,2524,2525
2517,2374,2381,2526,2519
335,2375,2382,2527,2520,2376,2383,2528,2521,2385,2529,2530,2522,2387,2531,2532
2524,2381,2388,2533,2526
336,2382,2389,2534,2527,2383,2390,2535,2528,2392,2536,2537,2529,2394,2538,2539
2531,2388,2395,2540,2533
337,2389,2396,2541,2534,2390,2397,2542,2535,2399,2543,2544,2536,2401,2545,2546
2538,2395,2402,2547,2540
338,2396,2403,2548,2541,2397,2404,2549,2542,2406,2550,2551,2543,2408,2552,2553
2545,2402,2409,2554,2547
339,2403,2410,2555,2548,2404,2411,2556,2549,2413,2557,2558,2550,2415,2559,2560
2552,2409,2416,2561,2554
340,2410,2417,2562,2555,2411,2418,2563,2556,2420,2564,2565,2557,2422,2566,2567
2559,2416,2423,2568,2561
341,2425,2424,2569,2570,2427,2426,2571,2572,2429,2573,2574,2575,2432,2576,2577
2578,2435,2434,2579,2580
342,2424,2436,2581,2569,2426,2437,2582,2571,2439,2583,2584,2573,2441,2585,2586
2576,2434,2442,2587,2579
343,2436,2443,2588,2581,2437,2444,2589,2582,2446,2590,2591,2583,2448,2592,2593
2585,2442,2449,2594,2587
344,2443,2450,2595,2588,2444,2451,2596,2589,2453,2597,2598,2590,2455,2599,2600
2592,2449,2456,2601,2594
345,2450,2457,2602,2595,2451,2458,2603,2596,2460,2604,2605,2597,2462,2606,2607
2599,2456,2463,2608,2601
346,2457,2464,2609,2602,2458,2465,2610,2603,2467,2611,2612,2604,2469,2613,2614
2606,2463,2470,2615,2608
347,2464,2471,2616,2609,2465,2472,2617,2610,2474,2618,2619,2611,2476,2620,2621
2613,2470,2477,2622,2615
348,2471,2478,2623,2616,2472,2479,2624,2617,2481,2625,2626,2618,2483,2627,2628
2620,2477,2484,2629,2622
349,2478,2485,2630,2623,2479,2486,2631,2624,2488,2632,2633,2625,2490,2634,2635
2627,2484,2491,2636,2629
350,2485,2492,2637,2630,2486,2493,2638,2631,2495,2639,2640,2632,2497,2641,2642
2634,2491,2498,2643,2636
351,2492,2499,2644,2637,2493,2500,2645,2638,2502,2646,2647,2639,2504,2648,2649
2641,2498,2505,2650,2643
352,2499,2506,2651,2644,2500,2507,2652,2645,2509,2653,2654,2646,2511,2655,2656
2648,2505,2512,2657,2650
353,2506,2513,2658,2651,2507,2514,2659,2652,2516,2660,2661,2653,2518,2662,2663
2655,2512,2519,2664,2657
354,2513,2520,2665,2658,2514,2521,2666,2659,2523,2667,2668,2660,2525,2669,2670
2662,2519,2526,2671,2664
355,2520,2527,2672,2665,2521,2528,2673,2666,2530,2674,2675,2667,2532,2676,2677
2669,2526,2533,2678,2671
356,2527,2534,2679,2672,2528,2535,2680,2673,2537,2681,2682,2674,2539,2683,2684
2676,2533,2540,2685,2678
357,2534,2541,2686,2679,2535,2542,2687,2680,2544,2688,2689,2681,2546,2690,2691
2683,2540,2547,2692,2685
358,2541,2548,2693,2686,2542,2549,2694,2687,2551,2695,2696,2688,2553,2697,2698
2690,2547,2554,2699,2692
359,2548,2555,2700,2693,2549,2556,2701,2694,2558,2702,2703,2695,2560,2704,2705
2697,2554,2561,2706,2699
360,2555,2562,2707,2700,2556,2563,2708,2701,2565,2709,2710,2702,2567,2711,2712
2704,2561,2568,2713,2706
361,5,6,7,8,2714,2715,2716,2717,13,14,15,16,2718,2719,2720
2721,2722,2723,2724,2725
362,6,23,24,7,2715,2726,2727,2716,28,29,30,14,2728,2729,2730
2719,2723,2731,2732,2724
363,23,35,36,24,2726,2733,2734,2727,40,41,42,29,2735,2736,2737
2729,2731,2738,2739,2732
364,35,47,48,36,2733,2740,2741,2734,52,53,54,41,2742,2743,2744
2736,2738,2745,2746,2739
365,47,59,60,48,2740,2747,2748,2741,64,65,66,53,2749,2750,2751
2743,2745,2752,2753,2746
366,59,71,72,60,2747,2754,2755,2748,76,77,78,65,2756,2757,2758
2750,2752,2759,2760,2753
367,71,83,84,72,2754,2761,2762,2755,88,89,90,77,2763,2764,2765
2757,2759,2766,2767,2760
368,83,95,96,84,2761,2768,2769,2762,100,101,102,89,2770,2771,2772
2764,2766,2773,2774,2767
369,95,107,108,96,2768,2775,2776,2769,112,113,114,101,2777,2778,2779
2771,2773,2780,2781,2774
370,107,119,120,108,2775,2782,2783,2776,124,125,126,113,2784,2785,2786
2778,2780,2787,2788,2781
371,119,131,132,120,2782,2789,2790,2783,136,137,138,125,2791,2792,2793
2785,2787,2794,2795,2788
372,131,143,144,132,2789,2796,2797,2790,148,149,150,137,2798,2799,2800
2792,2794,2801,2802,2795
373,143,155,156,144,2796,2803,2804,2797,160,161,162,149,2805,2806,2807
2799,2801,2808,2809,2802
374,155,167,168,156,2803,2810,2811,2804,172,173,174,161,2812,2813,2814
2806,2808,2815,2816,2809
375,167,179,180,168,2810,2817,2818,2811,184,185,186,173,2819,2820,2821
2813,2815,2822,2823,2816
376,179,191,192,180,2817,2824,2825,2818,196,197,198,185,2826,2827,2828
2820,2822,2829,2830,2823
377,191,203,204,192,2824,2831,2832,2825,208,209,210,197,2833,2834,2835
2827,2829,2836,2837,2830
378,203,215,216,204,2831,2838,2839,2832,220,221,222,209,2840,2841,2842
2834,2836,2843,2844,2837
379,215,227,228,216,2838,2845,2846,2839,232,233,234,221,2847,2848,2849
2841,2843,2850,2851,2844
380,227,239,240,228,2845,2852,2853,2846,244,245,246,233,2854,2855,2856
2848,2850,2857,2858,2851
381,8,7,251,252,2717,2716,2859,2860,15,256,257,258,2720,2861,2862
2863,2725,2724,2864,2865
382,7,24,262,251,2716,2727,2866,2859,30,265,266,256,2730,2867,2868
2861,2724,2732,2869,2864
383,24,36,269,262,2727,2734,2870,2866,42,272,273,265,2737,2871,2872
2867,2732,2739,2873,2869
384,36,48,276,269,2734,2741,2874,2870,54,279,280,272,2744,2875,2876
2871,2739,2746,2877,2873
385,48,60,283,276,2741,2748,2878,2874,66,286,287,279,2751,2879,2880
2875,2746,2753,2881,2877
386,60,72,290,283,2748,2755,2882,2878,78,293,294,286,2758,2883,2884
2879,2753,2760,2885,2881
387,72,84,297,290,2755,2762,2886,2882,90,300,301,293,2765,2887,2888
2883,2760,2767,2889,2885
388,84,96,304,297,2762,2769,2890,2886,102,307,308,300,2772,2891,2892
2887,2767,2774,2893,2889
389,96,108,311,304,2769,2776,2894,2890,114,314,315,307,2779,2895,2896
2891,2774,2781,2897,2893
390,108,120,318,311,2776,2783,2898,2894,126,321,322,314,2786,2899,2900
2895,2781,2788,2901,2897
391,120,132,325,318,2783,2790,2902,2898,138,328,329,321,2793,2903,2904
2899,2788,2795,2905,2901
392,132,144,332,325,2790,2797,2906,2902,150,335,336,328,2800,2907,2908
2903,2795,2802,2909,2905
393,144,156,339,332,2797,2804,2910,2906,162,342,343,335,2807,2911,2912
2907,2802,2809,2913,2909
394,156,168,346,339,2804,2811,2914,2910,174,349,350,342,2814,2915,2916
2911,2809,2816,2917,2913
395,168,180,353,346,2811,2818,2918,2914,186,356,357,349,2821,2919,2920
2915,2816,2823,2921,2917
396,180,192,360,353,2818,2825,2922,2918,198,363,364,356,2828,2923,2924
2919,2823,2830,2925,2921
397,192,204,367,360,2825,2832,2926,2922,210,370,371,363,2835,2927,2928
2923,2830,2837,2929,2925
398,204,216,374,367,2832,2839,2930,2926,222,377,378,370,2842,2931,2932
2927,2837,2844,2933,2929
399,216,228,381,374,2839,2846,2934,2930,234,384,385,377,2849,2935,2936
2931,2844,2851,2937,2933
400,228,240,388,381,2846,2853,2938,2934,246,391,392,384,2856,2939,2940
2935,2851,2858,2941,2937
401,252,251,396,397,2860,2859,2942,2943,257,401,402,403,2862,2944,2945
2946,2865,2864,2947,2948
402,251,262,407,396,2859,2866,2949,2942,266,410,411,401,2868,2950,2951
2944,2864,2869,2952,2947
403,262,269,414,407,2866,2870,2953,2949,273,417,418,410,2872,2954,2955
2950,2869,2873,2956,2952
404,269,276,421,414,2870,2874,2957,2953,280,424,425,417,2876,2958,2959
2954,2873,2877,2960,2956
405,276,283,428,421,2874,2878,2961,2957,287,431,432,424,2880,2962,2963
2958,2877,2881,2964,2960
406,283,290,435,428,2878,2882,2965,2961,294,438,439,431,2884,2966,2967
2962,2881,2885,2968,2964
407,290,297,442,435,2882,2886,2969,2965,301,445,446,438,2888,2970,2971
2966,2885,2889,2972,2968
408,297,304,449,442,2886,2890,2973,2969,308,452,453,445,2892,2974,2975
2970,2889,2893,2976,2972
409,304,311,456,449,2890,2894,2977,2973,315,459,460,452,2896,2978,2979
2974,2893,2897,2980,2976
410,311,318,463,456,2894,2898,2981,2977,322,466,467,459,2900,2982,2983
2978,2897,2901,2984,2980
411,318,325,470,463,2898,2902,2985,2981,329,473,474,466,2904,2986,2987
2982,2901,2905,2988,2984
412,325,332,477,470,2902,2906,2989,2985,336,480,481,473,2908,2990,2991
2986,2905,2909,2992,2988
413,332,339,484,477,2906,2910,2993,2989,343,487,488,480,2912,2994,2995
2990,2909,2913,2996,2992
414,339,346,491,484,2910,2914,2997,2993,350,494,495,487,2916,2998,2999
2994,2913,2917,3000,2996
415,346,353,498,491,2914,2918,3001,2997,357,501,502,494,2920,3002,3003
2998,2917,2921,3004,3000
416,353,360,505,498,2918,2922,3005,3001,364,508,509,501,2924,3006,3007
3002,2921,2925,3008,3004
417,360,367,512,505,2922,2926,3009,3005,371,515,516,508,2928,3010,3011
3006,2925,2929,3012,3008
418,367,374,519,512,2926,2930,3013,3009,378,522,523,515,2932,3014,3015
3010,2929,2933,3016,3012
419,374,381,526,519,2930,2934,3017,3013,385,529,530,522,2936,3018,3019
3014,2933,2937,3020,3016
420,381,388,533,526,2934,2938,3021,3017,392,536,537,529,2940,3022,3023
3018,2937,2941,3024,3020
421,397,396,541,542,2943,2942,3025,3026,402,546,547,548,2945,3027,3028
3029,2948,2947,3030,3031
422,396,407,552,541,2942,2949,3032,3025,411,555,556,546,2951,3033,3034
3027,2947,2952,3035,3030
423,407,414,559,552,2949,2953,3036,3032,418,562,563,555,2955,3037,3038
3033,2952,2956,3039,3035
424,414,421,566,559,2953,2957,3040,3036,425,569,570,562,2959,3041,3042
3037,2956,2960,3043,3039
425,421,428,573,566,2957,2961,3044,3040,432,576,577,569,2963,3045,3046
3041,2960,2964,3047,3043
426,428,435,580,573,2961,2965,3048,3044,439,583,584,576,2967,3049,3050
3045,2964,2968,3051,3047
427,435,442,587,580,2965,2969,3052,3048,446,590,591,583,2971,3053,3054
3049,2968,2972,3055,3051
428,442,449,594,587,2969,2973,3056,3052,453,597,598,590,2975,3057,3058
3053,2972,2976,3059,3055
429,449,456,601,594,2973,2977,3060,3056,460,604,605,597,2979,3061,3062
3057,2976,2980,3063,3059
430,456,463,608,601,2977,2981,3064,3060,467,611,612,604,2983,3065,3066
3061,2980,2984,3067,3063
431,463,470,615,608,2981,2985,3068,3064,474,618,619,611,2987,3069,3070
3065,2984,2988,3071,3067
432,470,477,622,615,2985,2989,3072,3068,481,625,626,618,2991,3073,3074
3069,2988,2992,3075,3071
433,477,484,629,622,2989,2993,3076,3072,488,632,633,625,2995,3077,3078
3073,2992,2996,3079,3075
434,484,491,636,629,2993,2997,3080,3076,495,639,640,632,2999,3081,3082
3077,2996,3000,3083,3079
435,491,498,643,636,2997,3001,3084,3080,502,646,647,639,3003,3085,3086
3081,3000,3004,3087,3083
436,498,505,650,643,3001,3005,3088,3084,509,653,654,646,3007,3089,3090
3085,3004,3008,3091,3087
437,505,512,657,650,3005,3009,3092,3088,516,660,661,653,3011,3093,3094
3089,3008,3012,3095,3091
438,512,519,664,657,3009,3013,3096,3092,523,667,668,660,3015,3097,3098
3093,3012,3016,3099,3095
439,519,526,671,664,3013,3017,3100,3096,530,674,675,667,3019,3101,3102
3097,3016,3020,3103,3099
440,526,533,678,671,3017,3021,3104,3100,537,681,682,674,3023,3105,3106
3101,3020,3024,3107,3103
441,542,541,686,687,3026,3025,3108,3109,547,691,692,693,3028,3110,3111
3112,3031,3030,3113,3114
442,541,552,697,686,3025,3032,3115,3108,556,700,701,691,3034,3116,3117
3110,3030,3035,3118,3113
443,552,559,704,697,3032,3036,3119,3115,563,707,708,700,3038,3120,3121
3116,3035,3039,3122,3118
444,559,566,711,704,3036,3040,3123,3119,570,714,715,707,3042,3124,3125
3120,3039,3043,3126,3122
445,566,573,718,711,3040,3044,3127,3123,577,721,722,714,3046,3128,3129
3124,3043,3047,3130,3126
446,573,580,725,718,3044,3048,3131,3127,584,728,729,721,3050,3132,3133
3128,3047,3051,3134,3130
447,580,587,732,725,3048,3052,3135,3131,591,735,736,728,3054,3136,3137
3132,3051,3055,3138,3134
448,587,594,739,732,3052,3056,3139,3135,598,742,743,735,3058,3140,3141
3136,3055,3059,3142,3138
449,594,601,746,739,3056,3060,3143,3139,605,749,750,742,3062,3144,3145
3140,3059,3063,3146,3142
450,601,608,753,746,3060,3064,3147,3143,612,756,757,749,3066,3148,3149
3144,3063,3067,3150,3146
451,608,615,760,753,3064,3068,3151,3147,619,763,764,756,3070,3152,3153
3148,3067,3071,3154,3150
452,615,622,767,760,3068,3072,3155,3151,626,770,771,763,3074,3156,3157
3152,3071,3075,3158,3154
453,622,629,774,767,3072,3076,3159,3155,633,777,778,770,3078,3160,3161
3156,3075,3079,3162,3158
454,629,636,781,774,3076,3080,3163,3159,640,784,785,777,3082,3164,3165
3160,3079,3083,3166,3162
455,636,643,788,781,3080,3084,3167,3163,647,791,792,784,3086,3168,3169
3164,3083,3087,3170,3166
456,643,650,795,788,3084,3088,3171,3167,654,798,799,791,3090,3172,3173
3168,3087,3091,3174,3170
457,650,657,802,795,3088,3092,3175,3171,661,805,806,798,3094,3176,3177
3172,3091,3095,3178,3174
458,657,664,809,802,3092,3096,3179,3175,668,812,813,805,3098,3180,3181
3176,3095,3099,3182,3178
459,664,671,816,809,3096,3100,3183,3179,675,819,820,812,3102,3184,3185
3180,3099,3103,3186,3182
460,671,678,823,816,3100,3104,3187,3183,682,826,827,819,3106,3188,3189
3184,3103,3107,3190,3186
461,687,686,831,832,3109,3108,3191,3192,692,836,837,838,3111,3193,3194
3195,3114,3113,3196,3197
462,686,697,842,831,3108,3115,3198,3191,701,845,846,836,3117,3199,3200
3193,3113,3118,3201,3196
463,697,704,849,842,3115,3119,3202,3198,708,852,853,845,3121,3203,3204
3199,3118,3122,3205,3201
464,704,711,856,849,3119,3123,3206,3202,715,859,860,852,3125,3207,3208
3203,3122,3126,3209,3205
465,711,718,863,856,3123,3127,3210,3206,722,866,867,859,3129,3211,3212
3207,3126,3130,3213,3209
466,718,725,870,863,3127,3131,3214,3210,729,873,874,866,3133,3215,3216
3211,3130,3134,3217,3213
467,725,732,877,870,3131,3135,3218,3214,736,880,881,873,3137,3219,3220
3215,3134,3138,3221,3217
468,732,739,884,877,3135,3139,3222,3218,743,887,888,880,3141,3223,3224
3219,3138,3142,3225,3221
469,739,746,891,884,3139,3143,3226,3222,750,894,895,887,3145,3227,3228
3223,3142,3146,3229,3225
470,746,753,898,891,3143,3147,3230,3226,757,901,902,894,3149,3231,3232
3227,3146,3150,3233,3229
471,753,760,905,898,3147,3151,3234,3230,764,908,909,901,3153,3235,3236
3231,3150,3154,3237,3233
472,760,767,912,905,3151,3155,3238,3234,771,915,916,908,3157,3239,3240
3235,3154,3158,3241,3237
473,767,774,919,912,3155,3159,3242,3238,778,922,923,915,3161,3243,3244
3239,3158,3162,3245,3241
474,774,781,926,919,3159,3163,3246,3242,785,929,930,922,3165,3247,3248
3243,3162,3166,3249,3245
475,781,788,933,926,3163,3167,3250,3246,792,936,937,929,3169,3251,3252
3247,3166,3170,3253,3249
476,788,795,940,933,3167,3171,3254,3250,799,943,944,936,3173,3255,3256
3251,3170,3174,3257,3253
477,795,802,947,940,3171,3175,3258,3254,806,950,951,943,3177,3259,3260
3255,3174,3178,3261,3257
478,802,809,954,947,3175,3179,3262,3258,813,957,958,950,3181,3263,3264
3259,3178,3182,3265,3261
479,809,816,961,954,3179,3183,3266,3262,820,964,965,957,3185,3267,3268
3263,3182,3186,3269,3265
480,816,823,968,961,3183,3187,3270,3266,827,971,972,964,3189,3271,3272
3267,3186,3190,3273,3269
481,832,831,976,977,3192,3191,3274,3275,837,981,982,983,3194,3276,3277
3278,3197,3196,3279,3280
482,831,842,987,976,3191,3198,3281,3274,846,990,991,981,3200,3282,3283
3276,3196,3201,3284,3279
483,842,849,994,987,3198,3202,3285,3281,853,997,998,990,3204,3286,3287
3282,3201,3205,3288,3284
484,849,856,1001,994,3202,3206,3289,3285,860,1004,1005,997,3208,3290,3291
3286,3205,3209,3292,3288
485,856,863,1008,1001,3206,3210,3293,3289,867,1011,1012,1004,3212,3294,3295
3290,3209,3213,3296,3292
486,863,870,1015,1008,3210,3214,3297,3293,874,1018,1019,1011,3216,3298,3299
3294,3213,3217,3300,3296
487,870,877,1022,1015,3214,3218,3301,3297,881,1025,1026,1018,3220,3302,3303
3298,3217,3221,3304,3300
488,877,884,1029,1022,3218,3222,3305,3301,888,1032,1033,1025,3224,3306,3307
3302,3221,3225,3308,3304
489,884,891,1036,1029,3222,3226,3309,3305,895,1039,1040,1032,3228,3310,3311
3306,3225,3229,3312,3308
490,891,898,1043,1036,3226,3230,3313,3309,902,1046,1047,1039,3232,3314,3315
3310,3229,3233,3316,3312
491,898,905,1050,1043,3230,3234,3317,3313,909,1053,1054,1046,3236,3318,3319
3314,3233,3237,3320,3316
492,905,912,1057,1050,3234,3238,3321,3317,916,1060,1061,1053,3240,3322,3323
3318,3237,3241,3324,3320
493,912,919,1064,1057,3238,3242,3325,3321,923,1067,1068,1060,3244,3326,3327
3322,3241,3245,3328,3324
494,919,926,1071,1064,3242,3246,3329,3325,930,1074,1075,1067,3248,3330,3331
3326,3245,3249,3332,3328
495,926,933,1078,1071,3246,3250,3333,3329,937,1081,1082,1074,3252,3334,3335
3330,3249,3253,3336,3332
496,933,940,1085,1078,3250,3254,3337,3333,944,1088,1089,1081,3256,3338,3339
3334,3253,3257,3340,3336
497,940,947,1092,1085,3254,3258,3341,3337,951,1095,1096,1088,3260,3342,3343
3338,3257,3261,3344,3340
498,947,954,1099,1092,3258,3262,3345,3341,958,1102,1103,1095,3264,3346,3347
3342,3261,3265,3348,3344
499,954,961,1106,1099,3262,3266,3349,3345,965,1109,1110,1102,3268,3350,3351
3346,3265,3269,3352,3348
500,961,968,1113,1106,3266,3270,3353,3349,972,1116,1117,1109,3272,3354,3355
3350,3269,3273,3356,3352
501,977,976,1121,1122,3275,3274,3357,3358,982,1126,1127,1128,3277,3359,3360
3361,3280,3279,3362,3363
502,976,987,1132,1121,3274,3281,3364,3357,991,1135,1136,1126,3283,3365,3366
3359,3279,3284,3367,3362
503,987,994,1139,1132,3281,3285,3368,3364,998,1142,1143,1135,3287,3369,3370
3365,3284,3288,3371,3367
504,994,1001,1146,1139,3285,3289,3372,3368,1005,1149,1150,1142,3291,3373,3374
3369,3288,3292,3375,3371
505,1001,1008,1153,1146,3289,3293,3376,3372,1012,1156,1157,1149,3295,3377,3378
3373,3292,3296,3379,3375
506,1008,1015,1160,1153,3293,3297,3380,3376,1019,1163,1164,1156,3299,3381,3382
3377,3296,3300,3383,3379
507,1015,1022,1167,1160,3297,3301,3384,3380,1026,1170,1171,1163,3303,3385,3386
3381,3300,3304,3387,3383
508,1022,1029,1174,1167,3301,3305,3388,3384,1033,1177,1178,1170,3307,3389,3390
3385,3304,3308,3391,3387
509,1029,1036,1181,1174,3305,3309,3392,3388,1040,1184,1185,1177,3311,3393,3394
3389,3308,3312,3395,3391
510,1036,1043,1188,1181,3309,3313,3396,3392,1047,1191,1192,1184,3315,3397,3398
3393,3312,3316,3399,3395
511,1043,1050,1195,1188,3313,3317,3400,3396,1054,1198,1199,1191,3319,3401,3402
3397,3316,3320,3403,3399
512,1050,1057,1202,1195,3317,3321,3404,3400,1061,1205,1206,1198,3323,3405,3406
3401,3320,3324,3407,3403
513,1057,1064,1209,1202,3321,3325,3408,3404,1068,1212,1213,1205,3327,3409,3410
3405,3324,3328,3411,3407
514,1064,1071,1216,1209,3325,3329,3412,3408,1075,1219,1220,1212,3331,3413,3414
3409,3328,3332,3415,3411
515,1071,1078,1223,1216,3329,3333,3416,3412,1082,1226,1227,1219,3335,3417,3418
3413,3332,3336,3419,3415
516,1078,1085,1230,1223,3333,3337,3420,3416,1089,1233,1234,1226,3339,3421,3422
3417,3336,3340,3423,3419
517,1085,1092,1237,1230,3337,3341,3424,3420,1096,1240,1241,1233,3343,3425,3426
3421,3340,3344,3427,3423
518,1092,1099,1244,1237,3341,3345,3428,3424,1103,1247,1248,1240,3347,3429,3430
3425,3344,3348,3431,3427
519,1099,1106,1251,1244,3345,3349,3432,3428,1110,1254,1255,1247,3351,3433,3434
3429,3348,3352,3435,3431
520,1106,1113,1258,1251,3349,3353,3436,3432,1117,1261,1262,1254,3355,3437,3438
3433,3352,3356,3439,3435
521,1122,1121,1266,1267,3358,3357,3440,3441,1127,1271,1272,1273,3360,3442,3443
3444,3363,3362,3445,3446
522,1121,1132,1277,1266,3357,3364,3447,3440,1136,1280,1281,1271,3366,3448,3449
3442,3362,3367,3450,3445
523,1132,1139,1284,1277,3364,3368,3451,3447,1143,1287,1288,1280,3370,3452,3453
3448,3367,3371,3454,3450
524,1139,1146,1291,1284,3368,3372,3455,3451,1150,1294,1295,1287,3374,3456,3457
3452,3371,3375,3458,3454
525,1146,1153,1298,1291,3372,3376,3459,3455,1157,1301,1302,1294,3378,3460,3461
3456,3375,3379,3462,3458
526,1153,1160,1305,1298,3376,3380,3463,3459,1164,1308,1309,1301,3382,3464,3465
3460,3379,3383,3466,3462
527,1160,1167,1312,1305,3380,3384,3467,3463,1171,1315,1316,1308,3386,3468,3469
3464,3383,3387,3470,3466
528,1167,1174,1319,1312,3384,3388,3471,3467,1178,1322,1323,1315,3390,3472,3473
3468,3387,3391,3474,3470
529,1174,1181,1326,1319,3388,3392,3475,3471,1185,1329,1330,1322,3394,3476,3477
3472,3391,3395,3478,3474
530,1181,1188,1333,1326,3392,3396,3479,3475,1192,1336,1337,1329,3398,3480,3481
3476,3395,3399,3482,3478
531,1188,1195,1340,1333,3396,3400,3483,3479,1199,1343,1344,1336,3402,3484,3485
3480,3399,3403,3486,3482
532,1195,1202,1347,1340,3400,3404,3487,3483,1206,1350,1351,1343,3406,3488,3489
3484,3403,3407,3490,3486
533,1202,1209,1354,1347,3404,3408,3491,3487,1213,1357,1358,1350,3410,3492,3493
3488,3407,3411,3494,3490
534,1209,1216,1361,1354,3408,3412,3495,3491,1220,1364,1365,1357,3414,3496,3497
3492,3411,3415,3498,3494
535,1216,1223,1368,1361,3412,3416,3499,3495,1227,1371,1372,1364,3418,3500,3501
3496,3415,3419,3502,3498
536,1223,1230,1375,1368,3416,3420,3503,3499,1234,1378,1379,1371,3422,3504,3505
3500,3419,3423,3506,3502
537,1230,1237,1382,1375,3420,3424,3507,3503,1241,1385,1386,1378,3426,3508,3509
3504,3423,3427,3510,3506
538,1237,1244,1389,1382,3424,3428,3511,3507,1248,1392,1393,1385,3430,3512,3513
3508,3427,3431,3514,3510
539,1244,1251,1396,1389,3428,3432,3515,3511,1255,1399,1400,1392,3434,3516,3517
3512,3431,3435,3518,3514
540,1251,1258,1403,1396,3432,3436,3519,3515,1262,1406,1407,1399,3438,3520,3521
3516,3435,3439,3522,3518
541,1267,1266,1411,1412,3441,3440,3523,3524,1272,1416,1417,1418,3443,3525,3526
3527,3446,3445,3528,3529
542,1266,1277,1422,1411,3440,3447,3530,3523,1281,1425,1426,1416,3449,3531,3532
3525,3445,3450,3533,3528
543,1277,1284,1429,1422,3447,3451,3534,3530,1288,1432,1433,1425,3453,3535,3536
3531,3450,3454,3537,3533
544,1284,1291,1436,1429,3451,3455,3538,3534,1295,1439,1440,1432,3457,3539,3540
3535,3454,3458,3541,3537
545,1291,1298,1443,1436,3455,3459,3542,3538,1302,1446,1447,1439,3461,3543,3544
3539,3458,3462,3545,3541
546,1298,1305,1450,1443,3459,3463,3546,3542,1309,1453,1454,1446,3465,3547,3548
3543,3462,3466,3549,3545
547,1305,1312,1457,1450,3463,3467,3550,3546,1316,1460,1461,1453,3469,3551,3552
3547,3466,3470,3553,3549
548,1312,1319,1464,1457,3467,3471,3554,3550,1323,1467,1468,1460,3473,3555,3556
3551,3470,3474,3557,3553
549,1319,1326,1471,1464,3471,3475,3558,3554,1330,1474,1475,1467,3477,3559,3560
3555,3474,3478,3561,3557
550,1326,1333,1478,1471,3475,3479,3562,3558,1337,1481,1482,1474,3481,3563,3564
3559,3478,3482,3565,3561
551,1333,1340,1485,1478,3479,3483,3566,3562,1344,1488,1489,1481,3485,3567,3568
3563,3482,3486,3569,3565
552,1340,1347,1492,1485,3483,3487,3570,3566,1351,1495,1496,1488,3489,3571,3572
3567,3486,3490,3573,3569
553,1347,1354,1499,1492,3487,3491,3574,3570,1358,1502,1503,1495,3493,3575,3576
3571,3490,3494,3577,3573
554,1354,1361,1506,1499,3491,3495,3578,3574,1365,1509,1510,1502,3497,3579,3580
3575,3494,3498,3581,3577
555,1361,1368,1513,1506,3495,3499,3582,3578,1372,1516,1517,1509,3501,3583,3584
3579,3498,3502,3585,3581
556,1368,1375,1520,1513,3499,3503,3586,3582,1379,1523,1524,1516,3505,3587,3588
3583,3502,3506,3589,3585
557,1375,1382,1527,1520,3503,3507,3590,3586,1386,1530,1531,1523,3509,3591,3592
3587,3506,3510,3593,3589
558,1382,1389,1534,1527,3507,3511,3594,3590,1393,1537,1538,1530,3513,3595,3596
3591,3510,3514,3597,3593
559,1389,1396,1541,1534,3511,3515,3598,3594,1400,1544,1545,1537,3517,3599,3600
3595,3514,3518,3601,3597
560,1396,1403,1548,1541,3515,3519,3602,3598,1407,1551,1552,1544,3521,3603,3604
3599,3518,3522,3605,3601
561,1412,1411,1556,1557,3524,3523,3606,3607,1417,1561,1562,1563,3526,3608,3609
3610,3529,3528,3611,3612
562,1411,1422,1567,1556,3523,3530,3613,3606,1426,1570,1571,1561,3532,3614,3615
3608,3528,3533,3616,3611
563,1422,1429,1574,1567,3530,3534,3617,3613,1433,1577,1578,1570,3536,3618,3619
3614,3533,3537,3620,3616
564,1429,1436,1581,1574,3534,3538,3621,3617,1440,1584,1585,1577,3540,3622,3623
3618,3537,3541,3624,3620
565,1436,1443,1588,1581,3538,3542,3625,3621,1447,1591,1592,1584,3544,3626,3627
3622,3541,3545,3628,3624
566,1443,1450,1595,1588,3542,3546,3629,3625,1454,1598,1599,1591,3548,3630,3631
3626,3545,3549,3632,3628
567,1450,1457,1602,1595,3546,3550,3633,3629,1461,1605,1606,1598,3552,3634,3635
3630,3549,3553,3636,3632
568,1457,1464,1609,1602,3550,3554,3637,3633,1468,1612,1613,1605,3556,3638,3639
3634,3553,3557,3640,3636
569,1464,1471,1616,1609,3554,3558,3641,3637,1475,1619,1620,1612,3560,3642,3643
3638,3557,3561,3644,3640
570,1471,1478,1623,1616,3558,3562,3645,3641,1482,1626,1627,1619,3564,3646,3647
3642,3561,3565,3648,3644
571,1478,1485,1630,1623,3562,3566,3649,3645,1489,1633,1634,1626,3568,3650,3651
3646,3565,3569,3652,3648
572,1485,1492,1637,1630,3566,3570,3653,3649,1496,1640,1641,1633,3572,3654,3655
3650,3569,3573,3656,3652
573,1492,1499,1644,1637,3570,3574,3657,3653,1503,1647,1648,1640,3576,3658,3659
3654,3573,3577,3660,3656
574,1499,1506,1651,1644,3574,3578,3661,3657,1510,1654,1655,1647,3580,3662,3663
3658,3577,3581,3664,3660
575,1506,1513,1658,1651,3578,3582,3665,3661,1517,1661,1662,1654,3584,3666,3667
3662,3581,3585,3668,3664
576,1513,1520,1665,1658,3582,3586,3669,3665,1524,1668,1669,1661,3588,3670,3671
3666,3585,3589,3672,3668
577,1520,1527,1672,1665,3586,3590,3673,3669,1531,1675,1676,1668,3592,3674,3675
3670,3589,3593,3676,3672
578,1527,1534,1679,1672,3590,3594,3677,3673,1538,1682,1683,1675,3596,3678,3679
3674,3593,3597,3680,3676
579,1534,1541,1686,1679,3594,3598,3681,3677,1545,1689,1690,1682,3600,3682,3683
3678,3597,3601,3684,3680
580,1541,1548,1693,1686,3598,3602,3685,3681,1552,1696,1697,1689,3604,3686,3687
3682,3601,3605,3688,3684
581,1557,1556,1701,1702,3607,3606,3689,3690,1562,1706,1707,1708,3609,3691,3692
3693,3612,3611,3694,3695
582,1556,1567,1712,1701,3606,3613,3696,3689,1571,1715,1716,1706,3615,3697,3698
3691,3611,3616,3699,3694
583,1567,1574,1719,1712,3613,3617,3700,3696,1578,1722,1723,1715,3619,3701,3702
3697,3616,3620,3703,3699
584,1574,1581,1726,1719,3617,3621,3704,3700,1585,1729,1730,1722,3623,3705,3706
3701,3620,3624,3707,3703
585,1581,1588,1733,1726,3621,3625,3708,3704,1592,1736,1737,1729,3627,3709,3710
3705,3624,3628,3711,3707
586,1588,1595,1740,1733,3625,3629,3712,3708,1599,1743,1744,1736,3631,3713,3714
3709,3628,3632,3715,3711
587,1595,1602,1747,1740,3629,3633,3716,3712,1606,1750,1751,1743,3635,3717,3718
3713,3632,3636,3719,3715
588,1602,1609,1754,1747,3633,3637,3720,3716,1613,1757,1758,1750,3639,3721,3722
3717,3636,3640,3723,3719
589,1609,1616,1761,1754,3637,3641,3724,3720,1620,1764,1765,1757,3643,3725,3726
3721,3640,3644,3727,3723
590,1616,1623,1768,1761,3641,3645,3728,3724,1627,1771,1772,1764,3647,3729,3730
3725,3644,3648,3731,3727
591,1623,1630,1775,1768,3645,3649,3732,3728,1634,1778,1779,1771,3651,3733,3734
3729,3648,3652,3735,3731
592,1630,1637,1782,1775,3649,3653,3736,3732,1641,1785,1786,1778,3655,3737,3738
3733,3652,3656,3739,3735
593,1637,1644,1789,1782,3653,3657,3740,3736,1648,1792,1793,1785,3659,3741,3742
3737,3656,3660,3743,3739
594,1644,1651,1796,1789,3657,3661,3744,3740,1655,1799,1800,1792,3663,3745,3746
3741,3660,3664,3747,3743
595,1651,1658,1803,1796,3661,3665,3748,3744,1662,1806,1807,1799,3667,3749,3750
3745,3664,3668,3751,3747
596,1658,1665,1810,1803,3665,3669,3752,3748,1669,1813,1814,1806,3671,3753,3754
3749,3668,3672,3755,3751
597,1665,1672,1817,1810,3669,3673,3756,3752,1676,1820,1821,1813,3675,3757,3758
3753,3672,3676,3759,3755
598,1672,1679,1824,1817,3673,3677,3760,3756,1683,1827,1828,1820,3679,3761,3762
3757,3676,3680,3763,3759
599,1679,1686,1831,1824,3677,3681,3764,3760,1690,1834,1835,1827,3683,3765,3766
3761,3680,3684,3767,3763
600,1686,1693,1838,1831,3681,3685,3768,3764,1697,1841,1842,1834,3687,3769,3770
3765,3684,3688,3771,3767
601,1702,1701,1846,1847,3690,3689,3772,3773,1707,1851,1852,1853,3692,3774,3775
3776,3695,3694,3777,3778
602,1701,1712,1857,1846,3689,3696,3779,3772,1716,1860,1861,1851,3698,3780,3781
3774,3694,3699,3782,3777
603,1712,1719,1864,1857,3696,3700,3783,3779,1723,1867,1868,1860,3702,3784,3785
3780,3699,3703,3786,3782
604,1719,1726,1871,1864,3700,3704,3787,3783,1730,1874,1875,1867,3706,3788,3789
3784,3703,3707,3790,3786
605,1726,1733,1878,1871,3704,3708,3791,3787,1737,1881,1882,1874,3710,3792,3793
3788,3707,3711,3794,3790
606,1733,1740,1885,1878,3708,3712,3795,3791,1744,1888,1889,1881,3714,3796,3797
3792,3711,3715,3798,3794
607,1740,1747,1892,1885,3712,3716,3799,3795,1751,1895,1896,1888,3718,3800,3801
3796,3715,3719,3802,3798
608,1747,1754,1899,1892,3716,3720,3803,3799,1758,1902,1903,1895,3722,3804,3805
3800,3719,3723,3806,3802
609,1754,1761,1906,1899,3720,3724,3807,3803,1765,1909,1910,1902,3726,3808,3809
3804,3723,3727,3810,3806
610,1761,1768,1913,1906,3724,3728,3811,3807,1772,1916,1917,1909,3730,3812,3813
3808,3727,3731,3814,3810
611,1768,1775,1920,1913,3728,3732,3815,3811,1779,1923,1924,1916,3734,3816,3817
3812,3731,3735,3818,3814
612,1775,1782,1927,1920,3732,3736,3819,3815,1786,1930,1931,1923,3738,3820,3821
3816,3735,3739,3822,3818
613,1782,1789,1934,1927,3736,3740,3823,3819,1793,1937,1938,1930,3742,3824,3825
3820,3739,3743,3826,3822
614,1789,1796,1941,1934,3740,3744,3827,3823,1800,1944,1945,1937,3746,3828,3829
3824,3743,3747,3830,3826
615,1796,1803,1948,1941,3744,3748,3831,3827,1807,1951,1952,1944,3750,3832,3833
3828,3747,3751,3834,3830
616,1803,1810,1955,1948,3748,3752,3835,3831,1814,1958,1959,1951,3754,3836,3837
3832,3751,3755,3838,3834
617,1810,1817,1962,1955,3752,3756,3839,3835,1821,1965,1966,1958,3758,3840,3841
3836,3755,3759,3842,3838
618,1817,1824,1969,1962,3756,3760,3843,3839,1828,1972,1973,1965,3762,3844,3845
3840,3759,3763,3846,3842
619,1824,1831,1976,1969,3760,3764,3847,3843,1835,1979,1980,1972,3766,3848,3849
3844,3763,3767,3850,3846
620,1831,1838,1983,1976,3764,3768,3851,3847,1842,1986,1987,1979,3770,3852,3853
3848,3767,3771,3854,3850
621,1847,1846,1991,1992,3773,3772,3855,3856,1852,1996,1997,1998,3775,3857,3858
3859,3778,3777,3860,3861
622,1846,1857,2002,1991,3772,3779,3862,3855,1861,2005,2006,1996,3781,3863,3864
3857,3777,3782,3865,3860
623,1857,1864,2009,2002,3779,3783,3866,3862,1868,2012,2013,2005,3785,3867,3868
3863,3782,3786,3869,3865
624,1864,1871,2016,2009,3783,3787,3870,3866,1875,2019,2020,2012,3789,3871,3872
3867,3786,3790,3873,3869
625,1871,1878,2023,2016,3787,3791,3874,3870,1882,2026,2027,2019,3793,3875,3876
3871,3790,3794,3877,3873
626,1878,1885,2030,2023,3791,3795,3878,3874,1889,2033,2034,2026,3797,3879,3880
3875,3794,3798,3881,3877
627,1885,1892,2037,2030,3795,3799,3882,3878,1896,2040,2041,2033,3801,3883,3884
3879,3798,3802,3885,3881
628,1892,1899,2044,2037,3799,3803,3886,3882,1903,2047,2048,2040,3805,3887,3888
3883,3802,3806,3889,3885
629,1899,1906,2051,2044,3803,3807,3890,3886,1910,2054,2055,2047,3809,3891,3892
3887,3806,3810,3893,3889
630,1906,1913,2058,2051,3807,3811,3894,3890,1917,2061,2062,2054,3813,3895,3896
3891,3810,3814,3897,3893
631,1913,1920,2065,2058,3811,3815,3898,3894,1924,2068,2069,2061,3817,3899,3900
3895,3814,3818,3901,3897
632,1920,1927,2072,2065,3815,3819,3902,3898,1931,2075,2076,2068,3821,3903,3904
3899,3818,3822,3905,3901
633,1927,1934,2079,2072,3819,3823,3906,3902,1938,2082,2083,2075,3825,3907,3908
3903,3822,3826,3909,3905
634,1934,1941,2086,2079,3823,3827,3910,3906,1945,2089,2090,2082,3829,3911,3912
3907,3826,3830,3913,3909
635,1941,1948,2093,2086,3827,3831,3914,3910,1952,2096,2097,2089,3833,3915,3916
3911,3830,3834,3917,3913
636,1948,1955,2100,2093,3831,3835,3918,3914,1959,2103,2104,2096,3837,3919,3920
3915,3834,3838,3921,3917
637,1955,1962,2107,2100,3835,3839,3922,3918,1966,2110,2111,2103,3841,3923,3924
3919,3838,3842,3925,3921
638,1962,1969,2114,2107,3839,3843,3926,3922,1973,2117,2118,2110,3845,3927,3928
3923,3842,3846,3929,3925
639,1969,1976,2121,2114,3843,3847,3930,3926,1980,2124,2125,2117,3849,3931,3932
3927,3846,3850,3933,3929
640,1976,1983,2128,2121,3847,3851,3934,3930,1987,2131,2132,2124,3853,3935,3936
3931,3850,3854,3937,3933
641,1992,1991,2136,2137,3856,3855,3938,3939,1997,2141,2142,2143,3858,3940,3941
3942,3861,3860,3943,3944
642,1991,2002,2147,2136,3855,3862,3945,3938,2006,2150,2151,2141,3864,3946,3947
3940,3860,3865,3948,3943
643,2002,2009,2154,2147,3862,3866,3949,3945,2013,2157,2158,2150,3868,3950,3951
3946,3865,3869,3952,3948
644,2009,2016,2161,2154,3866,3870,3953,3949,2020,2164,2165,2157,3872,3954,3955
3950,3869,3873,3956,3952
645,2016,2023,2168,2161,3870,3874,3957,3953,2027,2171,2172,2164,3876,3958,3959
3954,3873,3877,3960,3956
646,2023,2030,2175,2168,3874,3878,3961,3957,2034,2178,2179,2171,3880,3962,3963
3958,3877,3881,3964,3960
647,2030,2037,2182,2175,3878,3882,3965,3961,2041,2185,2186,2178,3884,3966,3967
3962,3881,3885,3968,3964
648,2037,2044,2189,2182,3882,3886,3969,3965,2048,2192,2193,2185,3888,3970,3971
3966,3885,3889,3972,3968
649,2044,2051,2196,2189,3886,3890,3973,3969,2055,2199,2200,2192,3892,3974,3975
3970,3889,3893,3976,3972
650,2051,2058,2203,2196,3890,3894,3977,3973,2062,2206,2207,2199,3896,3978,3979
3974,3893,3897,3980,3976
651,2058,2065,2210,2203,3894,3898,3981,3977,2069,2213,2214,2206,3900,3982,3983
3978,3897,3901,3984,3980
652,2065,2072,2217,2210,3898,3902,3985,3981,2076,2220,2221,2213,3904,3986,3987
3982,3901,3905,3988,3984
653,2072,2079,2224,2217,3902,3906,3989,3985,2083,2227,2228,2220,3908,3990,3991
3986,3905,3909,3992,3988
654,2079,2086,2231,2224,3906,3910,3993,3989,2090,2234,2235,2227,3912,3994,3995
3990,3909,3913,3996,3992
655,2086,2093,2238,2231,3910,3914,3997,3993,2097,2241,2242,2234,3916,3998,3999
3994,3913,3917,4000,3996
656,2093,2100,2245,2238,3914,3918,4001,3997,2104,2248,2249,2241,3920,4002,4003
3998,3917,3921,4004,4000
657,2100,2107,2252,2245,3918,3922,4005,4001,2111,2255,2256,2248,3924,4006,4007
4002,3921,3925,4008,4004
658,2107,2114,2259,2252,3922,3926,4009,4005,2118,2262,2263,2255,3928,4010,4011
4006,3925,3929,4012,4008
659,2114,2121,2266,2259,3926,3930,4013,4009,2125,2269,2270,2262,3932,4014,4015
4010,3929,3933,4016,4012
660,2121,2128,2273,2266,3930,3934,4017,4013,2132,2276,2277,2269,3936,4018,4019
4014,3933,3937,4020,4016
661,2137,2136,2281,2282,3939,3938,4021,4022,2142,2286,2287,2288,3941,4023,4024
4025,3944,3943,4026,4027
662,2136,2147,2292,2281,3938,3945,4028,4021,2151,2295,2296,2286,3947,4029,4030
4023,3943,3948,4031,4026
663,2147,2154,2299,2292,3945,3949,4032,4028,2158,2302,2303,2295,3951,4033,4034
4029,3948,3952,4035,4031
664,2154,2161,2306,2299,3949,3953,4036,4032,2165,2309,2310,2302,3955,4037,4038
4033,3952,3956,4039,4035
665,2161,2168,2313,2306,3953,3957,4040,4036,2172,2316,2317,2309,3959,4041,4042
4037,3956,3960,4043,4039
666,2168,2175,2320,2313,3957,3961,4044,4040,2179,2323,2324,2316,3963,4045,4046
4041,3960,3964,4047,4043
667,2175,2182,2327,2320,3961,3965,4048,4044,2186,2330,2331,2323,3967,4049,4050
4045,3964,3968,4051,4047
668,2182,2189,2334,2327,3965,3969,4052,4048,2193,2337,2338,2330,3971,4053,4054
4049,3968,3972,4055,4051
669,2189,2196,2341,2334,3969,3973,4056,4052,2200,2344,2345,2337,3975,4057,4058
4053,3972,3976,4059,4055
670,2196,2203,2348,2341,3973,3977,4060,4056,2207,2351,2352,2344,3979,4061,4062
4057,3976,3980,4063,4059
671,2203,2210,2355,2348,3977,3981,4064,4060,2214,2358,2359,2351,3983,4065,4066
4061,3980,3984,4067,4063
672,2210,2217,2362,2355,3981,3985,4068,4064,2221,2365,2366,2358,3987,4069,4070
4065,3984,3988,4071,4067
673,2217,2224,2369,2362,3985,3989,4072,4068,2228,2372,2373,2365,3991,4073,4074
4069,3988,3992,4075,4071
674,2224,2231,2376,2369,3989,3993,4076,4072,2235,2379,2380,2372,3995,4077,4078
4073,3992,3996,4079,4075
675,2231,2238,2383,2376,3993,3997,4080,4076,2242,2386,2387,2379,3999,4081,4082
4077,3996,4000,4083,4079
676,2238,2245,2390,2383,3997,4001,4084,4080,2249,2393,2394,2386,4003,4085,4086
4081,4000,4004,4087,4083
677,2245,2252,2397,2390,4001,4005,4088,4084,2256,2400,2401,2393,4007,4089,4090
4085,4004,4008,4091,4087
678,2252,2259,2404,2397,4005,4009,4092,4088,2263,2407,2408,2400,4011,4093,4094
4089,4008,4012,4095,4091
679,2259,2266,2411,2404,4009,4013,4096,4092,2270,2414,2415,2407,4015,4097,4098
4093,4012,4016,4099,4095
680,2266,2273,2418,2411,4013,4017,4100,4096,2277,2421,2422,2414,4019,4101,4102
4097,4016,4020,4103,4099
681,2282,2281,2426,2427,4022,4021,4104,4105,2287,2431,2432,2433,4024,4106,4107
4108,4027,4026,4109,4110
682,2281,2292,2437,2426,4021,4028,4111,4104,2296,2440,2441,2431,4030,4112,4113
4106,4026,4031,4114,4109
683,2292,2299,2444,2437,4028,4032,4115,4111,2303,2447,2448,2440,4034,4116,4117
4112,4031,4035,4118,4114
684,2299,2306,2451,2444,4032,4036,4119,4115,2310,2454,2455,2447,4038,4120,4121
4116,4035,4039,4122,4118
685,2306,2313,2458,2451,4036,4040,4123,4119,2317,2461,2462,2454,4042,4124,4125
4120,4039,4043,4126,4122
686,2313,2320,2465,2458,4040,4044,4127,4123,2324,2468,2469,2461,4046,4128,4129
4124,4043,4047,4130,4126
687,2320,2327,2472,2465,4044,4048,4131,4127,2331,2475,2476,2468,4050,4132,4133
4128,4047,4051,4134,4130
688,2327,2334,2479,2472,4048,4052,4135,4131,2338,2482,2483,2475,4054,4136,4137
4132,4051,4055,4138,4134
689,2334,2341,2486,2479,4052,4056,4139,4135,2345,2489,2490,2482,4058,4140,4141
4136,4055,4059,4142,4138
690,2341,2348,2493,2486,4056,4060,4143,4139,2352,2496,2497,2489,4062,4144,4145
4140,4059,4063,4146,4142
691,2348,2355,2500,2493,4060,4064,4147,4143,2359,2503,2504,2496,4066,4148,4149
4144,4063,4067,4150,4146
692,2355,2362,2507,2500,4064,4068,4151,4147,2366,2510,2511,2503,4070,4152,4153
4148,4067,4071,4154,4150
693,2362,2369,2514,2507,4068,4072,4155,4151,2373,2517,2518,2510,4074,4156,4157
4152,4071,4075,4158,4154
694,2369,2376,2521,2514,4072,4076,4159,4155,2380,2524,2525,2517,4078,4160,4161
4156,4075,4079,4162,4158
695,2376,2383,2528,2521,4076,4080,4163,4159,2387,2531,2532,2524,4082,4164,4165
4160,4079,4083,4166,4162
696,2383,2390,2535,2528,4080,4084,4167,4163,2394,2538,2539,2531,4086,4168,4169
4164,4083,4087,4170,4166
697,2390,2397,2542,2535,4084,4088,4171,4167,2401,2545,2546,2538,4090,4172,4173
4168,4087,4091,4174,4170
698,2397,2404,2549,2542,4088,4092,4175,4171,2408,2552,2553,2545,4094,4176,4177
4172,4091,4095,4178,4174
699,2404,2411,2556,2549,4092,4096,4179,4175,2415,2559,2560,2552,4098,4180,4181
4176,4095,4099,4182,4178
700,2411,2418,2563,2556,4096,4100,4183,4179,2422,2566,2567,2559,4102,4184,4185
4180,4099,4103,4186,4182
701,2427,2426,2571,2572,4105,4104,4187,4188,2432,2576,2577,2578,4107,4189,4190
4191,4110,4109,4192,4193
702,2426,2437,2582,2571,4104,4111,4194,4187,2441,2585,2586,2576,4113,4195,4196
4189,4109,4114,4197,4192
703,2437,2444,2589,2582,4111,4115,4198,4194,2448,2592,2593,2585,4117,4199,4200
4195,4114,4118,4201,4197
704,2444,2451,2596,2589,4115,4119,4202,4198,2455,2599,2600,2592,4121,4203,4204
4199,4118,4122,4205,4201
705,2451,2458,2603,2596,4119,4123,4206,4202,2462,2606,2607,2599,4125,4207,4208
4203,4122,4126,4209,4205
706,2458,2465,2610,2603,4123,4127,4210,4206,2469,2613,2614,2606,4129,4211,4212
4207,4126,4130,4213,4209
707,2465,2472,2617,2610,4127,4131,4214,4210,2476,2620,2621,2613,4133,4215,4216
4211,4130,4134,4217,4213
708,2472,2479,2624,2617,4131,4135,4218,4214,2483,2627,2628,2620,4137,4219,4220
4215,4134,4138,4221,4217
709,2479,2486,2631,2624,4135,4139,4222,4218,2490,2634,2635,2627,4141,4223,4224
4219,4138,4142,4225,4221
710,2486,2493,2638,2631,4139,4143,4226,4222,2497,2641,2642,2634,4145,4227,4228
4223,4142,4146,4229,4225
711,2493,2500,2645,2638,4143,4147,4230,4226,2504,2648,2649,2641,4149,4231,4232
4227,4146,4150,4233,4229
712,2500,2507,2652,2645,4147,4151,4234,4230,2511,2655,2656,2648,4153,4235,4236
4231,4150,4154,4237,4233
713,2507,2514,2659,2652,4151,4155,4238,4234,2518,2662,2663,2655,4157,4239,4240
4235,4154,4158,4241,4237
714,2514,2521,2666,2659,4155,4159,4242,4238,2525,2669,2670,2662,4161,4243,4244
4239,4158,4162,4245,4241
715,2521,2528,2673,2666,4159,4163,4246,4242,2532,2676,2677,2669,4165,4247,4248
4243,4162,4166,4249,4245
716,2528,2535,2680,2673,4163,4167,4250,4246,2539,2683,2684,2676,4169,4251,4252
4247,4166,4170,4253,4249
717,2535,2542,2687,2680,4167,4171,4254,4250,2546,2690,2691,2683,4173,4255,4256
4251,4170,4174,4257,4253
718,2542,2549,2694,2687,4171,4175,4258,4254,2553,2697,2698,2690,4177,4259,4260
4255,4174,4178,4261,4257
719,2549,2556,2701,2694,4175,4179,4262,4258,2560,2704,2705,2697,4181,4263,4264
4259,4178,4182,4265,4261
720,2556,2563,2708,2701,4179,4183,4266,4262,2567,2711,2712,2704,4185,4267,4268
4263,4182,4186,4269,4265
*NSET,NSET=FIXED
105,106,107,108,110,113,115,116,117,118,119,120,121,122,123,124
125,126,127,128,129,130,131,132,133,134,135,136,137,138,139,140
141,142,143,144,145,146,147,148,149,150,151,152,153,154,155,156
157,158,159,160,161,162,163,164,165,166,167,168,169,170,171,172
173,174,175,176,177,178,179,180,181,182,183,184,185,186,187,188
310,311,312,314,316,317,318,319,320,321,322,323,324,325,326,327
328,329,330,331,332,333,334,335,336,337,338,339,340,341,342,343
344,345,346,347,348,349,350,351,352,353,354,355,356,357,358,455
456,457,459,461,462,463,464,465,466,467,468,469,470,471,472,473
474,475,476,477,478,479,480,481,482,483,484,485,486,487,488,489
490,491,492,493,494,495,496,497,498,499,500,501,502,503,600,601
602,604,606,607,608,609,610,611,612,613,614,615,616,617,618,619
620,621,622,623,624,625,626,627,628,629,630,631,632,633,634,635
636,637,638,639,640,641,642,643,644,645,646,647,648,2775,2776,2778
2780,2781,2782,2783,2784,2785,2786,2787,2788,2789,2790,2791,2792,2793,2794,2795
2796,2797,2798,2799,2800,2801,2802,2803,2804,2805,2806,2807,2808,2809,2810,2811
2812,2813,2814,2815,2816,2817,2818,2819,2820,2821,2822,2823,2894,2895,2897,2898
2899,2900,2901,2902,2903,2904,2905,2906,2907,2908,2909,2910,2911,2912,2913,2914
2915,2916,2917,2918,2919,2920,2921,2977,2978,2980,2981,2982,2983,2984,2985,2986
2987,2988,2989,2990,2991,2992,2993,2994,2995,2996,2997,2998,2999,3000,3001,3002
3003,3004,3060,3061,3063,3064,3065,3066,3067,3068,3069,3070,3071,3072,3073,3074
3075,3076,3077,3078,3079,3080,3081,3082,3083,3084,3085,3086,3087
*NSET,NSET=TOPSURFACE
2714,2715,2716,2717,2718,2719,2720,2721,2726,2727,2728,2729,2730,2733,2734,2735
2736,2737,2740,2741,2742,2743,2744,2747,2748,2749,2750,2751,2754,2755,2756,2757
2758,2761,2762,2763,2764,2765,2768,2769,2770,2771,2772,2775,2776,2777,2778,2779
2782,2783,2784,2785,2786,2789,2790,2791,2792,2793,2796,2797,2798,2799,2800,2803
2804,2805,2806,2807,2810,2811,2812,2813,2814,2817,2818,2819,2820,2821,2824,2825
2826,2827,2828,2831,2832,2833,2834,2835,2838,2839,2840,2841,2842,2845,2846,2847
2848,2849,2852,2853,2854,2855,2856,2859,2860,2861,2862,2863,2866,2867,2868,2870
2871,2872,2874,2875,2876,2878,2879,2880,2882,2883,2884,2886,2887,2888,2890,2891
2892,2894,2895,2896,2898,2899,2900,2902,2903,2904,2906,2907,2908,2910,2911,2912
2914,2915,2916,2918,2919,2920,2922,2923,2924,2926,2927,2928,2930,2931,2932,2934
2935,2936,2938,2939,2940,2942,2943,2944,2945,2946,2949,2950,2951,2953,2954,2955
2957,2958,2959,2961,2962,2963,2965,2966,2967,2969,2970,2971,2973,2974,2975,2977
2978,2979,2981,2982,2983,2985,2986,2987,2989,2990,2991,2993,2994,2995,2997,2998
2999,3001,3002,3003,3005,3006,3007,3009,3010,3011,3013,3014,3015,3017,3018,3019
3021,3022,3023,3025,3026,3027,3028,3029,3032,3033,3034,3036,3037,3038,3040,3041
3042,3044,3045,3046,3048,3049,3050,3052,3053,3054,3056,3057,3058,3060,3061,3062
3064,3065,3066,3068,3069,3070,3072,3073,3074,3076,3077,3078,3080,3081,3082,3084
3085,3086,3088,3089,3090,3092,3093,3094,3096,3097,3098,3100,3101,3102,3104,3105
3106,3108,3109,3110,3111,3112,3115,3116,3117,3119,3120,3121,3123,3124,3125,3127
3128,3129,3131,3132,3133,3135,3136,3137,3139,3140,3141,3143,3144,3145,3147,3148
3149,3151,3152,3153,3155,3156,3157,3159,3160,3161,3163,3164,3165,3167,3168,3169
3171,3172,3173,3175,3176,3177,3179,3180,3181,3183,3184,3185,3187,3188,3189,3191
3192,3193,3194,3195,3198,3199,3200,3202,3203,3204,3206,3207,3208,3210,3211,3212
3214,3215,3216,3218,3219,3220,3222,3223,3224,3226,3227,3228,3230,3231,3232,3234
3235,3236,3238,3239,3240,3242,3243,3244,3246,3247,3248,3250,3251,3252,3254,3255
3256,3258,3259,3260,3262,3263,3264,3266,3267,3268,3270,3271,3272,3274,3275,3276
3277,3278,3281,3282,3283,3285,3286,3287,3289,3290,3291,3293,3294,3295,3297,3298
3299,3301,3302,3303,3305,3306,3307,3309,3310,3311,3313,3314,3315,3317,3318,3319
3321,3322,3323,3325,3326,3327,3329,3330,3331,3333,3334,3335,3337,3338,3339,3341
3342,3343,3345,3346,3347,3349,3350,3351,3353,3354,3355,3357,3358,3359,3360,3361
3364,3365,3366,3368,3369,3370,3372,3373,3374,3376,3377,3378,3380,3381,3382,3384
3385,3386,3388,3389,3390,3392,3393,3394,3396,3397,3398,3400,3401,3402,3404,3405
3406,3408,3409,3410,3412,3413,3414,3416,3417,3418,3420,3421,3422,3424,3425,3426
3428,3429,3430,3432,3433,3434,3436,3437,3438,3440,3441,3442,3443,3444,3447,3448
3449,3451,3452,3453,3455,3456,3457,3459,3460,3461,3463,3464,3465,3467,3468,3469
3471,3472,3473,3475,3476,3477,3479,3480,3481,3483,3484,3485,3487,3488,3489,3491
3492,3493,3495,3496,3497,3499,3500,3501,3503,3504,3505,3507,3508,3509,3511,3512
3513,3515,3516,3517,3519,3520,3521,3523,3524,3525,3526,3527,3530,3531,3532,3534
3535,3536,3538,3539,3540,3542,3543,3544,3546,3547,3548,3550,3551,3552,3554,3555
3556,3558,3559,3560,3562,3563,3564,3566,3567,3568,3570,3571,3572,3574,3575,3576
3578,3579,3580,3582,3583,3584,3586,3587,3588,3590,3591,3592,3594,3595,3596,3598
3599,3600,3602,3603,3604,3606,3607,3608,3609,3610,3613,3614,3615,3617,3618,3619
3621,3622,3623,3625,3626,3627,3629,3630,3631,3633,3634,3635,3637,3638,3639,3641
3642,3643,3645,3646,3647,3649,3650,3651,3653,3654,3655,3657,3658,3659,3661,3662
3663,3665,3666,3667,3669,3670,3671,3673,3674,3675,3677,3678,3679,3681,3682,3683
3685,3686,3687,3689,3690,3691,3692,3693,3696,3697,3698,3700,3701,3702,3704,3705
3706,3708,3709,3710,3712,3713,3714,3716,3717,3718,3720,3721,3722,3724,3725,3726
3728,3729,3730,3732,3733,3734,3736,3737,3738,3740,3741,3742,3744,3745,3746,3748
3749,3750,3752,3753,3754,3756,3757,3758,3760,3761,3762,3764,3765,3766,3768,3769
3770,3772,3773,3774,3775,3776,3779,3780,3781,3783,3784,3785,3787,3788,3789,3791
3792,3793,3795,3796,3797,3799,3800,3801,3803,3804,3805,3807,3808,3809,3811,3812
3813,3815,3816,3817,3819,3820,3821,3823,3824,3825,3827,3828,3829,3831,3832,3833
3835,3836,3837,3839,3840,3841,3843,3844,3845,3847,3848,3849,3851,3852,3853,3855
3856,3857,3858,3859,3862,3863,3864,3866,3867,3868,3870,3871,3872,3874,3875,3876
3878,3879,3880,3882,3883,3884,3886,3887,3888,3890,3891,3892,3894,3895,3896,3898
3899,3900,3902,3903,3904,3906,3907,3908,3910,3911,3912,3914,3915,3916,3918,3919
3920,3922,3923,3924,3926,3927,3928,3930,3931,3932,3934,3935,3936,3938,3939,3940
3941,3942,3945,3946,3947,3949,3950,3951,3953,3954,3955,3957,3958,3959,3961,3962
3963,3965,3966,3967,3969,3970,3971,3973,3974,3975,3977,3978,3979,3981,3982,3983
3985,3986,3987,3989,3990,3991,3993,3994,3995,3997,3998,3999,4001,4002,4003,4005
4006,4007,4009,4010,4011,4013,4014,4015,4017,4018,4019,4021,4022,4023,4024,4025
4028,4029,4030,4032,4033,4034,4036,4037,4038,4040,4041,4042,4044,4045,4046,4048
4049,4050,4052,4053,4054,4056,4057,4058,4060,4061,4062,4064,4065,4066,4068,4069
4070,4072,4073,4074,4076,4077,4078,4080,4081,4082,4084,4085,4086,4088,4089,4090
4092,4093,4094,4096,4097,4098,4100,4101,4102,4104,4105,4106,4107,4108,4111,4112
4113,4115,4116,4117,4119,4120,4121,4123,4124,4125,4127,4128,4129,4131,4132,4133
4135,4136,4137,4139,4140,4141,4143,4144,4145,4147,4148,4149,4151,4152,4153,4155
4156,4157,4159,4160,4161,4163,4164,4165,4167,4168,4169,4171,4172,4173,4175,4176
4177,4179,4180,4181,4183,4184,4185,4187,4188,4189,4190,4191,4194,4195,4196,4198
4199,4200,4202,4203,4204,4206,4207,4208,4210,4211,4212,4214,4215,4216,4218,4219
4220,4222,4223,4224,4226,4227,4228,4230,4231,4232,4234,4235,4236,4238,4239,4240
4242,4243,4244,4246,4247,4248,4250,4251,4252,4254,4255,4256,4258,4259,4260,4262
4263,4264,4266,4267,4268
*NSET,NSET=OBSERVATION
3198,3214,3238,3262,3696,3712,3724,3736,3760,4028,4044,4068,4092
*NSET,NSET=SENSOR
3724
*NSET,NSET=HIT_area01
3198
*NSET,NSET=HIT_area02
3214
*NSET,NSET=HIT_area03
3238
*NSET,NSET=HIT_area04
3262
*NSET,NSET=HIT_area05
3696
*NSET,NSET=HIT_area06
3712
*NSET,NSET=HIT_area07
3736
*NSET,NSET=HIT_area08
3760
*NSET,NSET=HIT_area09
4028
*NSET,NSET=HIT_area10
4044
*NSET,NSET=HIT_area11
4068
*NSET,NSET=HIT_area12
4092
*MATERIAL,NAME=PMMA
*ELASTIC
3200.,0.35
*DENSITY
1.18E-9
*SOLID SECTION,ELSET=SOLID,MATERIAL=PMMA
*BOUNDARY
FIXED,1,3
*AMPLITUDE,NAME=IMPULSE,TIME=TOTAL TIME
0.,0.,0.00015625,6400.,0.0003125,0.,0.320000,0.
*STEP,INC=10000
*MODAL DYNAMIC,DIRECT
0.00015625,0.320000
*MODAL DAMPING,MODAL=DIRECT
1,30,0.012
*CLOAD,AMPLITUDE=IMPULSE
HIT_area11,3,1.0
*NODE PRINT,NSET=SENSOR,GLOBAL=YES,FREQUENCY=1
U
*END STEP
